minimize
obj: Z
subject to
mp_c1_N121_: 1 x_("N121",_"MLX_ESB_31920_31995")_ + 1 x_("N121",_"MLX_ESB_33360_33435")_ = 1
mp_c1_N122_: 1 x_("N122",_"YEI_ESB_31920_31980")_ + 1 x_("N122",_"YEI_ESB_33360_33420")_ = 1
mp_c1_N123_: 1 x_("N123",_"SAW_ADB_31920_31980")_ + 1 x_("N123",_"SAW_ESB_31980_32040")_ + 1 x_("N123",_"SAW_TZX_32145_32245")_ + 1 x_("N123",_"SAW_ESB_32160_32220")_ + 1 x_("N123",_"SAW_VAS_32370_32450")_ + 1 x_("N123",_"SAW_AYT_32385_32450")_ + 1 x_("N123",_"SAW_ESB_32520_32580")_ + 1 x_("N123",_"SAW_ADB_32610_32670")_ + 1 x_("N123",_"SAW_ASR_32655_32740")_ + 1 x_("N123",_"SAW_KYA_32670_32740")_ + 1 x_("N123",_"SAW_ADB_33360_33420")_ = 1
mp_c1_N124_: 1 x_("N124",_"ECN_ESB_31920_31990")_ + 1 x_("N124",_"ECN_HTY_32520_32585")_ + 1 x_("N124",_"ECN_ESB_32735_32805")_ + 1 x_("N124",_"ECN_ESB_33360_33430")_ = 1
mp_c1_N125_: 1 x_("N125",_"ESB_SAW_32040_32100")_ + 1 x_("N125",_"ESB_TZX_32040_32120")_ + 1 x_("N125",_"ESB_AJI_32050_32145")_ + 1 x_("N125",_"ESB_BAL_32065_32155")_ + 1 x_("N125",_"ESB_VAN_32125_32220")_ + 1 x_("N125",_"ESB_SAW_32280_32340")_ + 1 x_("N125",_"ESB_MQM_32330_32425")_ + 1 x_("N125",_"ESB_ECN_32340_32410")_ + 1 x_("N125",_"ESB_ERC_32370_32450")_ + 1 x_("N125",_"ESB_SAW_32400_32460")_ + 1 x_("N125",_"ESB_ADB_32490_32570")_ + 1 x_("N125",_"ESB_GNY_32620_32695")_ + 1 x_("N125",_"ESB_ADA_32640_32700")_ + 1 x_("N125",_"ESB_SZF_32660_32720")_ + 1 x_("N125",_"ESB_MLX_32860_32935")_ + 1 x_("N125",_"ESB_ECN_32865_32935")_ + 1 x_("N125",_"ESB_HTY_32870_32950")_ + 1 x_("N125",_"ESB_YEI_32875_32935")_ = 1
mp_c1_N126_: 1 x_("N126",_"SAW_ADB_31920_31980")_ + 1 x_("N126",_"SAW_ESB_31980_32040")_ + 1 x_("N126",_"SAW_TZX_32145_32245")_ + 1 x_("N126",_"SAW_ESB_32160_32220")_ + 1 x_("N126",_"SAW_VAS_32370_32450")_ + 1 x_("N126",_"SAW_AYT_32385_32450")_ + 1 x_("N126",_"SAW_ESB_32520_32580")_ + 1 x_("N126",_"SAW_ADB_32610_32670")_ + 1 x_("N126",_"SAW_ASR_32655_32740")_ + 1 x_("N126",_"SAW_KYA_32670_32740")_ + 1 x_("N126",_"SAW_ADB_33360_33420")_ = 1
mp_c1_N127_: 1 x_("N127",_"HTY_ESB_31920_31995")_ + 1 x_("N127",_"HTY_ECN_32625_32690")_ + 1 x_("N127",_"HTY_ESB_33360_33435")_ = 1
mp_c1_N128_: 1 x_("N128",_"SAW_ADB_31920_31980")_ + 1 x_("N128",_"SAW_ESB_31980_32040")_ + 1 x_("N128",_"SAW_TZX_32145_32245")_ + 1 x_("N128",_"SAW_ESB_32160_32220")_ + 1 x_("N128",_"SAW_VAS_32370_32450")_ + 1 x_("N128",_"SAW_AYT_32385_32450")_ + 1 x_("N128",_"SAW_ESB_32520_32580")_ + 1 x_("N128",_"SAW_ADB_32610_32670")_ + 1 x_("N128",_"SAW_ASR_32655_32740")_ + 1 x_("N128",_"SAW_KYA_32670_32740")_ + 1 x_("N128",_"SAW_ADB_33360_33420")_ = 1
mp_c1_SAW_ADB_31920_31980_: 1 x_("SAW_ADB_31920_31980",_"ADB_SAW_32015_32075")_ + 1 x_("SAW_ADB_31920_31980",_"ADB_SAW_32705_32765")_ + 1 x_("SAW_ADB_31920_31980",_"ADB_ESB_32605_32680")_ = 1
mp_c1_ECN_ESB_31920_31990_: 1 x_("ECN_ESB_31920_31990",_"ESB_TZX_32040_32120")_ + 1 x_("ECN_ESB_31920_31990",_"ESB_MLX_32860_32935")_ + 1 x_("ECN_ESB_31920_31990",_"ESB_ADA_32640_32700")_ + 1 x_("ECN_ESB_31920_31990",_"ESB_SZF_32660_32720")_ + 1 x_("ECN_ESB_31920_31990",_"ESB_ECN_32865_32935")_ + 1 x_("ECN_ESB_31920_31990",_"ESB_HTY_32870_32950")_ + 1 x_("ECN_ESB_31920_31990",_"ESB_BAL_32065_32155")_ + 1 x_("ECN_ESB_31920_31990",_"ESB_AJI_32050_32145")_ + 1 x_("ECN_ESB_31920_31990",_"ESB_SAW_32040_32100")_ + 1 x_("ECN_ESB_31920_31990",_"ESB_YEI_32875_32935")_ + 1 x_("ECN_ESB_31920_31990",_"ESB_SAW_32280_32340")_ + 1 x_("ECN_ESB_31920_31990",_"ESB_SAW_32400_32460")_ + 1 x_("ECN_ESB_31920_31990",_"ESB_ADB_32490_32570")_ + 1 x_("ECN_ESB_31920_31990",_"ESB_GNY_32620_32695")_ + 1 x_("ECN_ESB_31920_31990",_"ESB_MQM_32330_32425")_ + 1 x_("ECN_ESB_31920_31990",_"ESB_VAN_32125_32220")_ + 1 x_("ECN_ESB_31920_31990",_"ESB_ERC_32370_32450")_ + 1 x_("ECN_ESB_31920_31990",_"ESB_ECN_32340_32410")_ = 1
mp_c1_YEI_ESB_31920_31980_: 1 x_("YEI_ESB_31920_31980",_"ESB_TZX_32040_32120")_ + 1 x_("YEI_ESB_31920_31980",_"ESB_MLX_32860_32935")_ + 1 x_("YEI_ESB_31920_31980",_"ESB_ADA_32640_32700")_ + 1 x_("YEI_ESB_31920_31980",_"ESB_SZF_32660_32720")_ + 1 x_("YEI_ESB_31920_31980",_"ESB_ECN_32865_32935")_ + 1 x_("YEI_ESB_31920_31980",_"ESB_HTY_32870_32950")_ + 1 x_("YEI_ESB_31920_31980",_"ESB_BAL_32065_32155")_ + 1 x_("YEI_ESB_31920_31980",_"ESB_AJI_32050_32145")_ + 1 x_("YEI_ESB_31920_31980",_"ESB_SAW_32040_32100")_ + 1 x_("YEI_ESB_31920_31980",_"ESB_YEI_32875_32935")_ + 1 x_("YEI_ESB_31920_31980",_"ESB_SAW_32280_32340")_ + 1 x_("YEI_ESB_31920_31980",_"ESB_SAW_32400_32460")_ + 1 x_("YEI_ESB_31920_31980",_"ESB_ADB_32490_32570")_ + 1 x_("YEI_ESB_31920_31980",_"ESB_GNY_32620_32695")_ + 1 x_("YEI_ESB_31920_31980",_"ESB_MQM_32330_32425")_ + 1 x_("YEI_ESB_31920_31980",_"ESB_VAN_32125_32220")_ + 1 x_("YEI_ESB_31920_31980",_"ESB_ERC_32370_32450")_ + 1 x_("YEI_ESB_31920_31980",_"ESB_ECN_32340_32410")_ = 1
mp_c1_MLX_ESB_31920_31995_: 1 x_("MLX_ESB_31920_31995",_"ESB_TZX_32040_32120")_ + 1 x_("MLX_ESB_31920_31995",_"ESB_MLX_32860_32935")_ + 1 x_("MLX_ESB_31920_31995",_"ESB_ADA_32640_32700")_ + 1 x_("MLX_ESB_31920_31995",_"ESB_SZF_32660_32720")_ + 1 x_("MLX_ESB_31920_31995",_"ESB_ECN_32865_32935")_ + 1 x_("MLX_ESB_31920_31995",_"ESB_HTY_32870_32950")_ + 1 x_("MLX_ESB_31920_31995",_"ESB_BAL_32065_32155")_ + 1 x_("MLX_ESB_31920_31995",_"ESB_AJI_32050_32145")_ + 1 x_("MLX_ESB_31920_31995",_"ESB_SAW_32040_32100")_ + 1 x_("MLX_ESB_31920_31995",_"ESB_YEI_32875_32935")_ + 1 x_("MLX_ESB_31920_31995",_"ESB_SAW_32280_32340")_ + 1 x_("MLX_ESB_31920_31995",_"ESB_SAW_32400_32460")_ + 1 x_("MLX_ESB_31920_31995",_"ESB_ADB_32490_32570")_ + 1 x_("MLX_ESB_31920_31995",_"ESB_GNY_32620_32695")_ + 1 x_("MLX_ESB_31920_31995",_"ESB_MQM_32330_32425")_ + 1 x_("MLX_ESB_31920_31995",_"ESB_VAN_32125_32220")_ + 1 x_("MLX_ESB_31920_31995",_"ESB_ERC_32370_32450")_ + 1 x_("MLX_ESB_31920_31995",_"ESB_ECN_32340_32410")_ = 1
mp_c1_HTY_ESB_31920_31995_: 1 x_("HTY_ESB_31920_31995",_"ESB_TZX_32040_32120")_ + 1 x_("HTY_ESB_31920_31995",_"ESB_MLX_32860_32935")_ + 1 x_("HTY_ESB_31920_31995",_"ESB_ADA_32640_32700")_ + 1 x_("HTY_ESB_31920_31995",_"ESB_SZF_32660_32720")_ + 1 x_("HTY_ESB_31920_31995",_"ESB_ECN_32865_32935")_ + 1 x_("HTY_ESB_31920_31995",_"ESB_HTY_32870_32950")_ + 1 x_("HTY_ESB_31920_31995",_"ESB_BAL_32065_32155")_ + 1 x_("HTY_ESB_31920_31995",_"ESB_AJI_32050_32145")_ + 1 x_("HTY_ESB_31920_31995",_"ESB_SAW_32040_32100")_ + 1 x_("HTY_ESB_31920_31995",_"ESB_YEI_32875_32935")_ + 1 x_("HTY_ESB_31920_31995",_"ESB_SAW_32280_32340")_ + 1 x_("HTY_ESB_31920_31995",_"ESB_SAW_32400_32460")_ + 1 x_("HTY_ESB_31920_31995",_"ESB_ADB_32490_32570")_ + 1 x_("HTY_ESB_31920_31995",_"ESB_GNY_32620_32695")_ + 1 x_("HTY_ESB_31920_31995",_"ESB_MQM_32330_32425")_ + 1 x_("HTY_ESB_31920_31995",_"ESB_VAN_32125_32220")_ + 1 x_("HTY_ESB_31920_31995",_"ESB_ERC_32370_32450")_ + 1 x_("HTY_ESB_31920_31995",_"ESB_ECN_32340_32410")_ = 1
mp_c1_SAW_ESB_31980_32040_: 1 x_("SAW_ESB_31980_32040",_"ESB_MLX_32860_32935")_ + 1 x_("SAW_ESB_31980_32040",_"ESB_ADA_32640_32700")_ + 1 x_("SAW_ESB_31980_32040",_"ESB_SAW_33480_33540")_ + 1 x_("SAW_ESB_31980_32040",_"ESB_SZF_32660_32720")_ + 1 x_("SAW_ESB_31980_32040",_"ESB_ECN_32865_32935")_ + 1 x_("SAW_ESB_31980_32040",_"ESB_HTY_32870_32950")_ + 1 x_("SAW_ESB_31980_32040",_"ESB_YEI_32875_32935")_ + 1 x_("SAW_ESB_31980_32040",_"ESB_SAW_32280_32340")_ + 1 x_("SAW_ESB_31980_32040",_"ESB_SAW_32400_32460")_ + 1 x_("SAW_ESB_31980_32040",_"ESB_ADB_32490_32570")_ + 1 x_("SAW_ESB_31980_32040",_"ESB_GNY_32620_32695")_ + 1 x_("SAW_ESB_31980_32040",_"ESB_MQM_32330_32425")_ + 1 x_("SAW_ESB_31980_32040",_"ESB_VAN_32125_32220")_ + 1 x_("SAW_ESB_31980_32040",_"ESB_ERC_32370_32450")_ + 1 x_("SAW_ESB_31980_32040",_"ESB_TZX_33480_33560")_ + 1 x_("SAW_ESB_31980_32040",_"ESB_ECN_32340_32410")_ = 1
mp_c1_ADB_SAW_32015_32075_: 1 x_("ADB_SAW_32015_32075",_"SAW_ASR_32655_32740")_ + 1 x_("ADB_SAW_32015_32075",_"SAW_ESB_32520_32580")_ + 1 x_("ADB_SAW_32015_32075",_"SAW_ADB_33360_33420")_ + 1 x_("ADB_SAW_32015_32075",_"SAW_ESB_32160_32220")_ + 1 x_("ADB_SAW_32015_32075",_"SAW_VAS_32370_32450")_ + 1 x_("ADB_SAW_32015_32075",_"SAW_ESB_33420_33480")_ + 1 x_("ADB_SAW_32015_32075",_"SAW_KYA_32670_32740")_ + 1 x_("ADB_SAW_32015_32075",_"SAW_AYT_32385_32450")_ + 1 x_("ADB_SAW_32015_32075",_"SAW_TZX_32145_32245")_ + 1 x_("ADB_SAW_32015_32075",_"SAW_ADB_32610_32670")_ = 1
mp_c1_ESB_SAW_32040_32100_: 1 x_("ESB_SAW_32040_32100",_"SAW_ASR_32655_32740")_ + 1 x_("ESB_SAW_32040_32100",_"SAW_ESB_32520_32580")_ + 1 x_("ESB_SAW_32040_32100",_"SAW_ADB_33360_33420")_ + 1 x_("ESB_SAW_32040_32100",_"SAW_ESB_32160_32220")_ + 1 x_("ESB_SAW_32040_32100",_"SAW_VAS_32370_32450")_ + 1 x_("ESB_SAW_32040_32100",_"SAW_ESB_33420_33480")_ + 1 x_("ESB_SAW_32040_32100",_"SAW_KYA_32670_32740")_ + 1 x_("ESB_SAW_32040_32100",_"SAW_AYT_32385_32450")_ + 1 x_("ESB_SAW_32040_32100",_"SAW_TZX_32145_32245")_ + 1 x_("ESB_SAW_32040_32100",_"SAW_ADB_32610_32670")_ = 1
mp_c1_ESB_TZX_32040_32120_: 1 x_("ESB_TZX_32040_32120",_"TZX_SAW_32280_32385")_ + 1 x_("ESB_TZX_32040_32120",_"TZX_ESB_32155_32235")_ = 1
mp_c1_ESB_AJI_32050_32145_: 1 x_("ESB_AJI_32050_32145",_"AJI_ESB_32180_32285")_ = 1
mp_c1_ESB_BAL_32065_32155_: 1 x_("ESB_BAL_32065_32155",_"BAL_ESB_32190_32285")_ = 1
mp_c1_ESB_VAN_32125_32220_: 1 x_("ESB_VAN_32125_32220",_"VAN_ESB_32255_32360")_ = 1
mp_c1_SAW_TZX_32145_32245_: 1 x_("SAW_TZX_32145_32245",_"TZX_SAW_32280_32385")_ + 1 x_("SAW_TZX_32145_32245",_"TZX_ESB_33595_33675")_ = 1
mp_c1_TZX_ESB_32155_32235_: 1 x_("TZX_ESB_32155_32235",_"ESB_MLX_32860_32935")_ + 1 x_("TZX_ESB_32155_32235",_"ESB_ADA_32640_32700")_ + 1 x_("TZX_ESB_32155_32235",_"ESB_SAW_33480_33540")_ + 1 x_("TZX_ESB_32155_32235",_"ESB_SZF_32660_32720")_ + 1 x_("TZX_ESB_32155_32235",_"ESB_ECN_32865_32935")_ + 1 x_("TZX_ESB_32155_32235",_"ESB_HTY_32870_32950")_ + 1 x_("TZX_ESB_32155_32235",_"ESB_AJI_33490_33585")_ + 1 x_("TZX_ESB_32155_32235",_"ESB_YEI_32875_32935")_ + 1 x_("TZX_ESB_32155_32235",_"ESB_SAW_32280_32340")_ + 1 x_("TZX_ESB_32155_32235",_"ESB_SAW_32400_32460")_ + 1 x_("TZX_ESB_32155_32235",_"ESB_VAN_33565_33660")_ + 1 x_("TZX_ESB_32155_32235",_"ESB_ADB_32490_32570")_ + 1 x_("TZX_ESB_32155_32235",_"ESB_BAL_33505_33595")_ + 1 x_("TZX_ESB_32155_32235",_"ESB_GNY_32620_32695")_ + 1 x_("TZX_ESB_32155_32235",_"ESB_MQM_32330_32425")_ + 1 x_("TZX_ESB_32155_32235",_"ESB_ERC_32370_32450")_ + 1 x_("TZX_ESB_32155_32235",_"ESB_TZX_33480_33560")_ + 1 x_("TZX_ESB_32155_32235",_"ESB_ECN_32340_32410")_ = 1
mp_c1_SAW_ESB_32160_32220_: 1 x_("SAW_ESB_32160_32220",_"ESB_MLX_32860_32935")_ + 1 x_("SAW_ESB_32160_32220",_"ESB_ADA_32640_32700")_ + 1 x_("SAW_ESB_32160_32220",_"ESB_SAW_33480_33540")_ + 1 x_("SAW_ESB_32160_32220",_"ESB_SZF_32660_32720")_ + 1 x_("SAW_ESB_32160_32220",_"ESB_ECN_32865_32935")_ + 1 x_("SAW_ESB_32160_32220",_"ESB_HTY_32870_32950")_ + 1 x_("SAW_ESB_32160_32220",_"ESB_AJI_33490_33585")_ + 1 x_("SAW_ESB_32160_32220",_"ESB_YEI_32875_32935")_ + 1 x_("SAW_ESB_32160_32220",_"ESB_SAW_32280_32340")_ + 1 x_("SAW_ESB_32160_32220",_"ESB_SAW_32400_32460")_ + 1 x_("SAW_ESB_32160_32220",_"ESB_VAN_33565_33660")_ + 1 x_("SAW_ESB_32160_32220",_"ESB_ADB_32490_32570")_ + 1 x_("SAW_ESB_32160_32220",_"ESB_BAL_33505_33595")_ + 1 x_("SAW_ESB_32160_32220",_"ESB_GNY_32620_32695")_ + 1 x_("SAW_ESB_32160_32220",_"ESB_MQM_32330_32425")_ + 1 x_("SAW_ESB_32160_32220",_"ESB_ERC_32370_32450")_ + 1 x_("SAW_ESB_32160_32220",_"ESB_TZX_33480_33560")_ + 1 x_("SAW_ESB_32160_32220",_"ESB_ECN_32340_32410")_ = 1
mp_c1_AJI_ESB_32180_32285_: 1 x_("AJI_ESB_32180_32285",_"ESB_MLX_32860_32935")_ + 1 x_("AJI_ESB_32180_32285",_"ESB_ADA_32640_32700")_ + 1 x_("AJI_ESB_32180_32285",_"ESB_SAW_33480_33540")_ + 1 x_("AJI_ESB_32180_32285",_"ESB_SZF_32660_32720")_ + 1 x_("AJI_ESB_32180_32285",_"ESB_ECN_32865_32935")_ + 1 x_("AJI_ESB_32180_32285",_"ESB_HTY_32870_32950")_ + 1 x_("AJI_ESB_32180_32285",_"ESB_AJI_33490_33585")_ + 1 x_("AJI_ESB_32180_32285",_"ESB_YEI_32875_32935")_ + 1 x_("AJI_ESB_32180_32285",_"ESB_SAW_32400_32460")_ + 1 x_("AJI_ESB_32180_32285",_"ESB_VAN_33565_33660")_ + 1 x_("AJI_ESB_32180_32285",_"ESB_ADB_32490_32570")_ + 1 x_("AJI_ESB_32180_32285",_"ESB_BAL_33505_33595")_ + 1 x_("AJI_ESB_32180_32285",_"ESB_SAW_33720_33780")_ + 1 x_("AJI_ESB_32180_32285",_"ESB_GNY_32620_32695")_ + 1 x_("AJI_ESB_32180_32285",_"ESB_MQM_32330_32425")_ + 1 x_("AJI_ESB_32180_32285",_"ESB_ERC_32370_32450")_ + 1 x_("AJI_ESB_32180_32285",_"ESB_TZX_33480_33560")_ + 1 x_("AJI_ESB_32180_32285",_"ESB_ECN_32340_32410")_ = 1
mp_c1_BAL_ESB_32190_32285_: 1 x_("BAL_ESB_32190_32285",_"ESB_MLX_32860_32935")_ + 1 x_("BAL_ESB_32190_32285",_"ESB_ADA_32640_32700")_ + 1 x_("BAL_ESB_32190_32285",_"ESB_SAW_33480_33540")_ + 1 x_("BAL_ESB_32190_32285",_"ESB_SZF_32660_32720")_ + 1 x_("BAL_ESB_32190_32285",_"ESB_ECN_32865_32935")_ + 1 x_("BAL_ESB_32190_32285",_"ESB_HTY_32870_32950")_ + 1 x_("BAL_ESB_32190_32285",_"ESB_AJI_33490_33585")_ + 1 x_("BAL_ESB_32190_32285",_"ESB_YEI_32875_32935")_ + 1 x_("BAL_ESB_32190_32285",_"ESB_SAW_32400_32460")_ + 1 x_("BAL_ESB_32190_32285",_"ESB_VAN_33565_33660")_ + 1 x_("BAL_ESB_32190_32285",_"ESB_ADB_32490_32570")_ + 1 x_("BAL_ESB_32190_32285",_"ESB_BAL_33505_33595")_ + 1 x_("BAL_ESB_32190_32285",_"ESB_SAW_33720_33780")_ + 1 x_("BAL_ESB_32190_32285",_"ESB_GNY_32620_32695")_ + 1 x_("BAL_ESB_32190_32285",_"ESB_MQM_32330_32425")_ + 1 x_("BAL_ESB_32190_32285",_"ESB_ERC_32370_32450")_ + 1 x_("BAL_ESB_32190_32285",_"ESB_TZX_33480_33560")_ + 1 x_("BAL_ESB_32190_32285",_"ESB_ECN_32340_32410")_ = 1
mp_c1_VAN_ESB_32255_32360_: 1 x_("VAN_ESB_32255_32360",_"ESB_MLX_32860_32935")_ + 1 x_("VAN_ESB_32255_32360",_"ESB_ADA_32640_32700")_ + 1 x_("VAN_ESB_32255_32360",_"ESB_SAW_33480_33540")_ + 1 x_("VAN_ESB_32255_32360",_"ESB_SZF_32660_32720")_ + 1 x_("VAN_ESB_32255_32360",_"ESB_ECN_32865_32935")_ + 1 x_("VAN_ESB_32255_32360",_"ESB_HTY_32870_32950")_ + 1 x_("VAN_ESB_32255_32360",_"ESB_AJI_33490_33585")_ + 1 x_("VAN_ESB_32255_32360",_"ESB_YEI_32875_32935")_ + 1 x_("VAN_ESB_32255_32360",_"ESB_SAW_32400_32460")_ + 1 x_("VAN_ESB_32255_32360",_"ESB_VAN_33565_33660")_ + 1 x_("VAN_ESB_32255_32360",_"ESB_ADB_32490_32570")_ + 1 x_("VAN_ESB_32255_32360",_"ESB_BAL_33505_33595")_ + 1 x_("VAN_ESB_32255_32360",_"ESB_SAW_33720_33780")_ + 1 x_("VAN_ESB_32255_32360",_"ESB_GNY_32620_32695")_ + 1 x_("VAN_ESB_32255_32360",_"ESB_TZX_33480_33560")_ + 1 x_("VAN_ESB_32255_32360",_"ESB_MQM_33770_33865")_ = 1
mp_c1_TZX_SAW_32280_32385_: 1 x_("TZX_SAW_32280_32385",_"SAW_ASR_32655_32740")_ + 1 x_("TZX_SAW_32280_32385",_"SAW_TZX_33585_33685")_ + 1 x_("TZX_SAW_32280_32385",_"SAW_ESB_32520_32580")_ + 1 x_("TZX_SAW_32280_32385",_"SAW_VAS_33810_33890")_ + 1 x_("TZX_SAW_32280_32385",_"SAW_ESB_33600_33660")_ + 1 x_("TZX_SAW_32280_32385",_"SAW_AYT_33825_33890")_ + 1 x_("TZX_SAW_32280_32385",_"SAW_ADB_33360_33420")_ + 1 x_("TZX_SAW_32280_32385",_"SAW_ESB_33420_33480")_ + 1 x_("TZX_SAW_32280_32385",_"SAW_KYA_32670_32740")_ + 1 x_("TZX_SAW_32280_32385",_"SAW_ADB_32610_32670")_ = 1
mp_c1_ESB_SAW_32280_32340_: 1 x_("ESB_SAW_32280_32340",_"SAW_ASR_32655_32740")_ + 1 x_("ESB_SAW_32280_32340",_"SAW_TZX_33585_33685")_ + 1 x_("ESB_SAW_32280_32340",_"SAW_ESB_32520_32580")_ + 1 x_("ESB_SAW_32280_32340",_"SAW_ESB_33600_33660")_ + 1 x_("ESB_SAW_32280_32340",_"SAW_ADB_33360_33420")_ + 1 x_("ESB_SAW_32280_32340",_"SAW_ESB_33420_33480")_ + 1 x_("ESB_SAW_32280_32340",_"SAW_KYA_32670_32740")_ + 1 x_("ESB_SAW_32280_32340",_"SAW_AYT_32385_32450")_ + 1 x_("ESB_SAW_32280_32340",_"SAW_ADB_32610_32670")_ = 1
mp_c1_ESB_MQM_32330_32425_: 1 x_("ESB_MQM_32330_32425",_"MQM_ESB_32460_32555")_ = 1
mp_c1_ESB_ECN_32340_32410_: 1 x_("ESB_ECN_32340_32410",_"ECN_ESB_33360_33430")_ + 1 x_("ESB_ECN_32340_32410",_"ECN_HTY_32520_32585")_ + 1 x_("ESB_ECN_32340_32410",_"ECN_ESB_32735_32805")_ = 1
mp_c1_ESB_ERC_32370_32450_: 1 x_("ESB_ERC_32370_32450",_"ERC_ESB_32485_32565")_ = 1
mp_c1_SAW_VAS_32370_32450_: 1 x_("SAW_VAS_32370_32450",_"VAS_SAW_32485_32565")_ = 1
mp_c1_SAW_AYT_32385_32450_: 1 x_("SAW_AYT_32385_32450",_"AYT_SAW_32490_32555")_ = 1
mp_c1_ESB_SAW_32400_32460_: 1 x_("ESB_SAW_32400_32460",_"SAW_ASR_32655_32740")_ + 1 x_("ESB_SAW_32400_32460",_"SAW_TZX_33585_33685")_ + 1 x_("ESB_SAW_32400_32460",_"SAW_ESB_32520_32580")_ + 1 x_("ESB_SAW_32400_32460",_"SAW_VAS_33810_33890")_ + 1 x_("ESB_SAW_32400_32460",_"SAW_ESB_33600_33660")_ + 1 x_("ESB_SAW_32400_32460",_"SAW_AYT_33825_33890")_ + 1 x_("ESB_SAW_32400_32460",_"SAW_ADB_33360_33420")_ + 1 x_("ESB_SAW_32400_32460",_"SAW_ESB_33420_33480")_ + 1 x_("ESB_SAW_32400_32460",_"SAW_KYA_32670_32740")_ + 1 x_("ESB_SAW_32400_32460",_"SAW_ADB_32610_32670")_ = 1
mp_c1_MQM_ESB_32460_32555_: 1 x_("MQM_ESB_32460_32555",_"ESB_MLX_32860_32935")_ + 1 x_("MQM_ESB_32460_32555",_"ESB_ADA_32640_32700")_ + 1 x_("MQM_ESB_32460_32555",_"ESB_SAW_33480_33540")_ + 1 x_("MQM_ESB_32460_32555",_"ESB_SZF_32660_32720")_ + 1 x_("MQM_ESB_32460_32555",_"ESB_ECN_32865_32935")_ + 1 x_("MQM_ESB_32460_32555",_"ESB_HTY_32870_32950")_ + 1 x_("MQM_ESB_32460_32555",_"ESB_SAW_33840_33900")_ + 1 x_("MQM_ESB_32460_32555",_"ESB_ERC_33810_33890")_ + 1 x_("MQM_ESB_32460_32555",_"ESB_AJI_33490_33585")_ + 1 x_("MQM_ESB_32460_32555",_"ESB_YEI_32875_32935")_ + 1 x_("MQM_ESB_32460_32555",_"ESB_VAN_33565_33660")_ + 1 x_("MQM_ESB_32460_32555",_"ESB_ADB_33930_34010")_ + 1 x_("MQM_ESB_32460_32555",_"ESB_BAL_33505_33595")_ + 1 x_("MQM_ESB_32460_32555",_"ESB_SAW_33720_33780")_ + 1 x_("MQM_ESB_32460_32555",_"ESB_GNY_32620_32695")_ + 1 x_("MQM_ESB_32460_32555",_"ESB_TZX_33480_33560")_ + 1 x_("MQM_ESB_32460_32555",_"ESB_MQM_33770_33865")_ = 1
mp_c1_ERC_ESB_32485_32565_: 1 x_("ERC_ESB_32485_32565",_"ESB_MLX_32860_32935")_ + 1 x_("ERC_ESB_32485_32565",_"ESB_ADA_32640_32700")_ + 1 x_("ERC_ESB_32485_32565",_"ESB_SAW_33480_33540")_ + 1 x_("ERC_ESB_32485_32565",_"ESB_SZF_32660_32720")_ + 1 x_("ERC_ESB_32485_32565",_"ESB_ECN_32865_32935")_ + 1 x_("ERC_ESB_32485_32565",_"ESB_HTY_32870_32950")_ + 1 x_("ERC_ESB_32485_32565",_"ESB_SAW_33840_33900")_ + 1 x_("ERC_ESB_32485_32565",_"ESB_ERC_33810_33890")_ + 1 x_("ERC_ESB_32485_32565",_"ESB_AJI_33490_33585")_ + 1 x_("ERC_ESB_32485_32565",_"ESB_YEI_32875_32935")_ + 1 x_("ERC_ESB_32485_32565",_"ESB_VAN_33565_33660")_ + 1 x_("ERC_ESB_32485_32565",_"ESB_ADB_33930_34010")_ + 1 x_("ERC_ESB_32485_32565",_"ESB_BAL_33505_33595")_ + 1 x_("ERC_ESB_32485_32565",_"ESB_SAW_33720_33780")_ + 1 x_("ERC_ESB_32485_32565",_"ESB_GNY_32620_32695")_ + 1 x_("ERC_ESB_32485_32565",_"ESB_TZX_33480_33560")_ + 1 x_("ERC_ESB_32485_32565",_"ESB_MQM_33770_33865")_ = 1
mp_c1_VAS_SAW_32485_32565_: 1 x_("VAS_SAW_32485_32565",_"SAW_ESB_33960_34020")_ + 1 x_("VAS_SAW_32485_32565",_"SAW_ASR_32655_32740")_ + 1 x_("VAS_SAW_32485_32565",_"SAW_TZX_33585_33685")_ + 1 x_("VAS_SAW_32485_32565",_"SAW_VAS_33810_33890")_ + 1 x_("VAS_SAW_32485_32565",_"SAW_ESB_33600_33660")_ + 1 x_("VAS_SAW_32485_32565",_"SAW_AYT_33825_33890")_ + 1 x_("VAS_SAW_32485_32565",_"SAW_ADB_33360_33420")_ + 1 x_("VAS_SAW_32485_32565",_"SAW_ESB_33420_33480")_ + 1 x_("VAS_SAW_32485_32565",_"SAW_KYA_32670_32740")_ + 1 x_("VAS_SAW_32485_32565",_"SAW_ADB_32610_32670")_ = 1
mp_c1_ESB_ADB_32490_32570_: 1 x_("ESB_ADB_32490_32570",_"ADB_SAW_32705_32765")_ + 1 x_("ESB_ADB_32490_32570",_"ADB_SAW_33455_33515")_ + 1 x_("ESB_ADB_32490_32570",_"ADB_ESB_32605_32680")_ = 1
mp_c1_AYT_SAW_32490_32555_: 1 x_("AYT_SAW_32490_32555",_"SAW_ESB_33960_34020")_ + 1 x_("AYT_SAW_32490_32555",_"SAW_ASR_32655_32740")_ + 1 x_("AYT_SAW_32490_32555",_"SAW_TZX_33585_33685")_ + 1 x_("AYT_SAW_32490_32555",_"SAW_VAS_33810_33890")_ + 1 x_("AYT_SAW_32490_32555",_"SAW_ESB_33600_33660")_ + 1 x_("AYT_SAW_32490_32555",_"SAW_AYT_33825_33890")_ + 1 x_("AYT_SAW_32490_32555",_"SAW_ADB_33360_33420")_ + 1 x_("AYT_SAW_32490_32555",_"SAW_ESB_33420_33480")_ + 1 x_("AYT_SAW_32490_32555",_"SAW_KYA_32670_32740")_ + 1 x_("AYT_SAW_32490_32555",_"SAW_ADB_32610_32670")_ = 1
mp_c1_SAW_ESB_32520_32580_: 1 x_("SAW_ESB_32520_32580",_"ESB_MLX_32860_32935")_ + 1 x_("SAW_ESB_32520_32580",_"ESB_ADA_32640_32700")_ + 1 x_("SAW_ESB_32520_32580",_"ESB_SAW_33480_33540")_ + 1 x_("SAW_ESB_32520_32580",_"ESB_SZF_32660_32720")_ + 1 x_("SAW_ESB_32520_32580",_"ESB_ECN_32865_32935")_ + 1 x_("SAW_ESB_32520_32580",_"ESB_HTY_32870_32950")_ + 1 x_("SAW_ESB_32520_32580",_"ESB_SAW_33840_33900")_ + 1 x_("SAW_ESB_32520_32580",_"ESB_ERC_33810_33890")_ + 1 x_("SAW_ESB_32520_32580",_"ESB_AJI_33490_33585")_ + 1 x_("SAW_ESB_32520_32580",_"ESB_YEI_32875_32935")_ + 1 x_("SAW_ESB_32520_32580",_"ESB_VAN_33565_33660")_ + 1 x_("SAW_ESB_32520_32580",_"ESB_ADB_33930_34010")_ + 1 x_("SAW_ESB_32520_32580",_"ESB_BAL_33505_33595")_ + 1 x_("SAW_ESB_32520_32580",_"ESB_SAW_33720_33780")_ + 1 x_("SAW_ESB_32520_32580",_"ESB_GNY_32620_32695")_ + 1 x_("SAW_ESB_32520_32580",_"ESB_TZX_33480_33560")_ + 1 x_("SAW_ESB_32520_32580",_"ESB_MQM_33770_33865")_ = 1
mp_c1_ECN_HTY_32520_32585_: 1 x_("ECN_HTY_32520_32585",_"HTY_ECN_32625_32690")_ + 1 x_("ECN_HTY_32520_32585",_"HTY_ESB_33360_33435")_ = 1
mp_c1_ADB_ESB_32605_32680_: 1 x_("ADB_ESB_32605_32680",_"ESB_MLX_32860_32935")_ + 1 x_("ADB_ESB_32605_32680",_"ESB_SAW_33480_33540")_ + 1 x_("ADB_ESB_32605_32680",_"ESB_ECN_32865_32935")_ + 1 x_("ADB_ESB_32605_32680",_"ESB_HTY_32870_32950")_ + 1 x_("ADB_ESB_32605_32680",_"ESB_SAW_33840_33900")_ + 1 x_("ADB_ESB_32605_32680",_"ESB_SZF_34100_34160")_ + 1 x_("ADB_ESB_32605_32680",_"ESB_ERC_33810_33890")_ + 1 x_("ADB_ESB_32605_32680",_"ESB_AJI_33490_33585")_ + 1 x_("ADB_ESB_32605_32680",_"ESB_YEI_32875_32935")_ + 1 x_("ADB_ESB_32605_32680",_"ESB_ADA_34080_34140")_ + 1 x_("ADB_ESB_32605_32680",_"ESB_VAN_33565_33660")_ + 1 x_("ADB_ESB_32605_32680",_"ESB_ADB_33930_34010")_ + 1 x_("ADB_ESB_32605_32680",_"ESB_BAL_33505_33595")_ + 1 x_("ADB_ESB_32605_32680",_"ESB_SAW_33720_33780")_ + 1 x_("ADB_ESB_32605_32680",_"ESB_GNY_34060_34135")_ + 1 x_("ADB_ESB_32605_32680",_"ESB_TZX_33480_33560")_ + 1 x_("ADB_ESB_32605_32680",_"ESB_MQM_33770_33865")_ = 1
mp_c1_SAW_ADB_32610_32670_: 1 x_("SAW_ADB_32610_32670",_"ADB_SAW_32705_32765")_ + 1 x_("SAW_ADB_32610_32670",_"ADB_SAW_33455_33515")_ + 1 x_("SAW_ADB_32610_32670",_"ADB_ESB_34045_34120")_ = 1
mp_c1_ESB_GNY_32620_32695_: 1 x_("ESB_GNY_32620_32695",_"GNY_ESB_32730_32810")_ = 1
mp_c1_HTY_ECN_32625_32690_: 1 x_("HTY_ECN_32625_32690",_"ECN_ESB_33360_33430")_ + 1 x_("HTY_ECN_32625_32690",_"ECN_ESB_32735_32805")_ = 1
mp_c1_ESB_ADA_32640_32700_: 1 x_("ESB_ADA_32640_32700",_"ADA_ESB_32740_32805")_ = 1
mp_c1_SAW_ASR_32655_32740_: 1 x_("SAW_ASR_32655_32740",_"ASR_SAW_32775_32865")_ = 1
mp_c1_ESB_SZF_32660_32720_: 1 x_("ESB_SZF_32660_32720",_"SZF_ESB_32755_32815")_ = 1
mp_c1_SAW_KYA_32670_32740_: 1 x_("SAW_KYA_32670_32740",_"KYA_SAW_32775_32845")_ = 1
mp_c1_ADB_SAW_32705_32765_: 1 x_("ADB_SAW_32705_32765",_"SAW_ADB_34050_34110")_ + 1 x_("ADB_SAW_32705_32765",_"SAW_ESB_33960_34020")_ + 1 x_("ADB_SAW_32705_32765",_"SAW_TZX_33585_33685")_ + 1 x_("ADB_SAW_32705_32765",_"SAW_VAS_33810_33890")_ + 1 x_("ADB_SAW_32705_32765",_"SAW_ESB_33600_33660")_ + 1 x_("ADB_SAW_32705_32765",_"SAW_AYT_33825_33890")_ + 1 x_("ADB_SAW_32705_32765",_"SAW_ADB_33360_33420")_ + 1 x_("ADB_SAW_32705_32765",_"SAW_ESB_33420_33480")_ + 1 x_("ADB_SAW_32705_32765",_"SAW_ASR_34095_34180")_ = 1
mp_c1_GNY_ESB_32730_32810_: 1 x_("GNY_ESB_32730_32810",_"ESB_MLX_32860_32935")_ + 1 x_("GNY_ESB_32730_32810",_"ESB_SAW_33480_33540")_ + 1 x_("GNY_ESB_32730_32810",_"ESB_ECN_32865_32935")_ + 1 x_("GNY_ESB_32730_32810",_"ESB_HTY_32870_32950")_ + 1 x_("GNY_ESB_32730_32810",_"ESB_SAW_33840_33900")_ + 1 x_("GNY_ESB_32730_32810",_"ESB_SZF_34100_34160")_ + 1 x_("GNY_ESB_32730_32810",_"ESB_ERC_33810_33890")_ + 1 x_("GNY_ESB_32730_32810",_"ESB_AJI_33490_33585")_ + 1 x_("GNY_ESB_32730_32810",_"ESB_YEI_32875_32935")_ + 1 x_("GNY_ESB_32730_32810",_"ESB_ADA_34080_34140")_ + 1 x_("GNY_ESB_32730_32810",_"ESB_VAN_33565_33660")_ + 1 x_("GNY_ESB_32730_32810",_"ESB_ADB_33930_34010")_ + 1 x_("GNY_ESB_32730_32810",_"ESB_BAL_33505_33595")_ + 1 x_("GNY_ESB_32730_32810",_"ESB_SAW_33720_33780")_ + 1 x_("GNY_ESB_32730_32810",_"ESB_GNY_34060_34135")_ + 1 x_("GNY_ESB_32730_32810",_"ESB_TZX_33480_33560")_ + 1 x_("GNY_ESB_32730_32810",_"ESB_MQM_33770_33865")_ = 1
mp_c1_ECN_ESB_32735_32805_: 1 x_("ECN_ESB_32735_32805",_"ESB_MLX_32860_32935")_ + 1 x_("ECN_ESB_32735_32805",_"ESB_SAW_33480_33540")_ + 1 x_("ECN_ESB_32735_32805",_"ESB_ECN_32865_32935")_ + 1 x_("ECN_ESB_32735_32805",_"ESB_HTY_32870_32950")_ + 1 x_("ECN_ESB_32735_32805",_"ESB_SAW_33840_33900")_ + 1 x_("ECN_ESB_32735_32805",_"ESB_SZF_34100_34160")_ + 1 x_("ECN_ESB_32735_32805",_"ESB_ERC_33810_33890")_ + 1 x_("ECN_ESB_32735_32805",_"ESB_AJI_33490_33585")_ + 1 x_("ECN_ESB_32735_32805",_"ESB_YEI_32875_32935")_ + 1 x_("ECN_ESB_32735_32805",_"ESB_ADA_34080_34140")_ + 1 x_("ECN_ESB_32735_32805",_"ESB_VAN_33565_33660")_ + 1 x_("ECN_ESB_32735_32805",_"ESB_ADB_33930_34010")_ + 1 x_("ECN_ESB_32735_32805",_"ESB_BAL_33505_33595")_ + 1 x_("ECN_ESB_32735_32805",_"ESB_SAW_33720_33780")_ + 1 x_("ECN_ESB_32735_32805",_"ESB_GNY_34060_34135")_ + 1 x_("ECN_ESB_32735_32805",_"ESB_TZX_33480_33560")_ + 1 x_("ECN_ESB_32735_32805",_"ESB_MQM_33770_33865")_ = 1
mp_c1_ADA_ESB_32740_32805_: 1 x_("ADA_ESB_32740_32805",_"ESB_MLX_32860_32935")_ + 1 x_("ADA_ESB_32740_32805",_"ESB_SAW_33480_33540")_ + 1 x_("ADA_ESB_32740_32805",_"ESB_ECN_32865_32935")_ + 1 x_("ADA_ESB_32740_32805",_"ESB_HTY_32870_32950")_ + 1 x_("ADA_ESB_32740_32805",_"ESB_SAW_33840_33900")_ + 1 x_("ADA_ESB_32740_32805",_"ESB_SZF_34100_34160")_ + 1 x_("ADA_ESB_32740_32805",_"ESB_ERC_33810_33890")_ + 1 x_("ADA_ESB_32740_32805",_"ESB_AJI_33490_33585")_ + 1 x_("ADA_ESB_32740_32805",_"ESB_YEI_32875_32935")_ + 1 x_("ADA_ESB_32740_32805",_"ESB_ADA_34080_34140")_ + 1 x_("ADA_ESB_32740_32805",_"ESB_VAN_33565_33660")_ + 1 x_("ADA_ESB_32740_32805",_"ESB_ADB_33930_34010")_ + 1 x_("ADA_ESB_32740_32805",_"ESB_BAL_33505_33595")_ + 1 x_("ADA_ESB_32740_32805",_"ESB_SAW_33720_33780")_ + 1 x_("ADA_ESB_32740_32805",_"ESB_GNY_34060_34135")_ + 1 x_("ADA_ESB_32740_32805",_"ESB_TZX_33480_33560")_ + 1 x_("ADA_ESB_32740_32805",_"ESB_MQM_33770_33865")_ = 1
mp_c1_SZF_ESB_32755_32815_: 1 x_("SZF_ESB_32755_32815",_"ESB_MLX_32860_32935")_ + 1 x_("SZF_ESB_32755_32815",_"ESB_SAW_33480_33540")_ + 1 x_("SZF_ESB_32755_32815",_"ESB_ECN_32865_32935")_ + 1 x_("SZF_ESB_32755_32815",_"ESB_HTY_32870_32950")_ + 1 x_("SZF_ESB_32755_32815",_"ESB_SAW_33840_33900")_ + 1 x_("SZF_ESB_32755_32815",_"ESB_SZF_34100_34160")_ + 1 x_("SZF_ESB_32755_32815",_"ESB_ERC_33810_33890")_ + 1 x_("SZF_ESB_32755_32815",_"ESB_AJI_33490_33585")_ + 1 x_("SZF_ESB_32755_32815",_"ESB_YEI_32875_32935")_ + 1 x_("SZF_ESB_32755_32815",_"ESB_ADA_34080_34140")_ + 1 x_("SZF_ESB_32755_32815",_"ESB_VAN_33565_33660")_ + 1 x_("SZF_ESB_32755_32815",_"ESB_ADB_33930_34010")_ + 1 x_("SZF_ESB_32755_32815",_"ESB_BAL_33505_33595")_ + 1 x_("SZF_ESB_32755_32815",_"ESB_SAW_33720_33780")_ + 1 x_("SZF_ESB_32755_32815",_"ESB_GNY_34060_34135")_ + 1 x_("SZF_ESB_32755_32815",_"ESB_TZX_33480_33560")_ + 1 x_("SZF_ESB_32755_32815",_"ESB_MQM_33770_33865")_ = 1
mp_c1_KYA_SAW_32775_32845_: 1 x_("KYA_SAW_32775_32845",_"SAW_ADB_34050_34110")_ + 1 x_("KYA_SAW_32775_32845",_"SAW_ESB_33960_34020")_ + 1 x_("KYA_SAW_32775_32845",_"SAW_TZX_33585_33685")_ + 1 x_("KYA_SAW_32775_32845",_"SAW_VAS_33810_33890")_ + 1 x_("KYA_SAW_32775_32845",_"SAW_ESB_33600_33660")_ + 1 x_("KYA_SAW_32775_32845",_"SAW_AYT_33825_33890")_ + 1 x_("KYA_SAW_32775_32845",_"SAW_ADB_33360_33420")_ + 1 x_("KYA_SAW_32775_32845",_"SAW_ESB_33420_33480")_ + 1 x_("KYA_SAW_32775_32845",_"SAW_ASR_34095_34180")_ = 1
mp_c1_ASR_SAW_32775_32865_: 1 x_("ASR_SAW_32775_32865",_"SAW_ADB_34050_34110")_ + 1 x_("ASR_SAW_32775_32865",_"SAW_ESB_33960_34020")_ + 1 x_("ASR_SAW_32775_32865",_"SAW_TZX_33585_33685")_ + 1 x_("ASR_SAW_32775_32865",_"SAW_VAS_33810_33890")_ + 1 x_("ASR_SAW_32775_32865",_"SAW_ESB_33600_33660")_ + 1 x_("ASR_SAW_32775_32865",_"SAW_AYT_33825_33890")_ + 1 x_("ASR_SAW_32775_32865",_"SAW_ADB_33360_33420")_ + 1 x_("ASR_SAW_32775_32865",_"SAW_ESB_33420_33480")_ + 1 x_("ASR_SAW_32775_32865",_"SAW_ASR_34095_34180")_ = 1
mp_c1_ESB_MLX_32860_32935_: 1 x_("ESB_MLX_32860_32935",_"MLX_ESB_33360_33435")_ = 1
mp_c1_ESB_ECN_32865_32935_: 1 x_("ESB_ECN_32865_32935",_"ECN_ESB_33360_33430")_ = 1
mp_c1_ESB_HTY_32870_32950_: 1 x_("ESB_HTY_32870_32950",_"HTY_ESB_33360_33435")_ = 1
mp_c1_ESB_YEI_32875_32935_: 1 x_("ESB_YEI_32875_32935",_"YEI_ESB_33360_33420")_ = 1
mp_c1_SAW_ADB_33360_33420_: 1 x_("SAW_ADB_33360_33420",_"ADB_SAW_33455_33515")_ + 1 x_("SAW_ADB_33360_33420",_"ADB_SAW_34145_34205")_ + 1 x_("SAW_ADB_33360_33420",_"ADB_ESB_34045_34120")_ = 1
mp_c1_ECN_ESB_33360_33430_: 1 x_("ECN_ESB_33360_33430",_"ESB_ECN_34305_34375")_ + 1 x_("ECN_ESB_33360_33430",_"ESB_SAW_33480_33540")_ + 1 x_("ECN_ESB_33360_33430",_"ESB_SAW_33840_33900")_ + 1 x_("ECN_ESB_33360_33430",_"ESB_SZF_34100_34160")_ + 1 x_("ECN_ESB_33360_33430",_"ESB_ERC_33810_33890")_ + 1 x_("ECN_ESB_33360_33430",_"ESB_AJI_33490_33585")_ + 1 x_("ECN_ESB_33360_33430",_"ESB_HTY_34310_34390")_ + 1 x_("ECN_ESB_33360_33430",_"ESB_MLX_34300_34375")_ + 1 x_("ECN_ESB_33360_33430",_"ESB_ADA_34080_34140")_ + 1 x_("ECN_ESB_33360_33430",_"ESB_VAN_33565_33660")_ + 1 x_("ECN_ESB_33360_33430",_"ESB_ADB_33930_34010")_ + 1 x_("ECN_ESB_33360_33430",_"ESB_BAL_33505_33595")_ + 1 x_("ECN_ESB_33360_33430",_"ESB_SAW_33720_33780")_ + 1 x_("ECN_ESB_33360_33430",_"ESB_YEI_34315_34375")_ + 1 x_("ECN_ESB_33360_33430",_"ESB_GNY_34060_34135")_ + 1 x_("ECN_ESB_33360_33430",_"ESB_TZX_33480_33560")_ + 1 x_("ECN_ESB_33360_33430",_"ESB_MQM_33770_33865")_ = 1
mp_c1_YEI_ESB_33360_33420_: 1 x_("YEI_ESB_33360_33420",_"ESB_ECN_34305_34375")_ + 1 x_("YEI_ESB_33360_33420",_"ESB_SAW_33480_33540")_ + 1 x_("YEI_ESB_33360_33420",_"ESB_SAW_33840_33900")_ + 1 x_("YEI_ESB_33360_33420",_"ESB_SZF_34100_34160")_ + 1 x_("YEI_ESB_33360_33420",_"ESB_ERC_33810_33890")_ + 1 x_("YEI_ESB_33360_33420",_"ESB_AJI_33490_33585")_ + 1 x_("YEI_ESB_33360_33420",_"ESB_HTY_34310_34390")_ + 1 x_("YEI_ESB_33360_33420",_"ESB_MLX_34300_34375")_ + 1 x_("YEI_ESB_33360_33420",_"ESB_ADA_34080_34140")_ + 1 x_("YEI_ESB_33360_33420",_"ESB_VAN_33565_33660")_ + 1 x_("YEI_ESB_33360_33420",_"ESB_ADB_33930_34010")_ + 1 x_("YEI_ESB_33360_33420",_"ESB_BAL_33505_33595")_ + 1 x_("YEI_ESB_33360_33420",_"ESB_SAW_33720_33780")_ + 1 x_("YEI_ESB_33360_33420",_"ESB_YEI_34315_34375")_ + 1 x_("YEI_ESB_33360_33420",_"ESB_GNY_34060_34135")_ + 1 x_("YEI_ESB_33360_33420",_"ESB_TZX_33480_33560")_ + 1 x_("YEI_ESB_33360_33420",_"ESB_MQM_33770_33865")_ = 1
mp_c1_MLX_ESB_33360_33435_: 1 x_("MLX_ESB_33360_33435",_"ESB_ECN_34305_34375")_ + 1 x_("MLX_ESB_33360_33435",_"ESB_SAW_33480_33540")_ + 1 x_("MLX_ESB_33360_33435",_"ESB_SAW_33840_33900")_ + 1 x_("MLX_ESB_33360_33435",_"ESB_SZF_34100_34160")_ + 1 x_("MLX_ESB_33360_33435",_"ESB_ERC_33810_33890")_ + 1 x_("MLX_ESB_33360_33435",_"ESB_AJI_33490_33585")_ + 1 x_("MLX_ESB_33360_33435",_"ESB_HTY_34310_34390")_ + 1 x_("MLX_ESB_33360_33435",_"ESB_MLX_34300_34375")_ + 1 x_("MLX_ESB_33360_33435",_"ESB_ADA_34080_34140")_ + 1 x_("MLX_ESB_33360_33435",_"ESB_VAN_33565_33660")_ + 1 x_("MLX_ESB_33360_33435",_"ESB_ADB_33930_34010")_ + 1 x_("MLX_ESB_33360_33435",_"ESB_BAL_33505_33595")_ + 1 x_("MLX_ESB_33360_33435",_"ESB_SAW_33720_33780")_ + 1 x_("MLX_ESB_33360_33435",_"ESB_YEI_34315_34375")_ + 1 x_("MLX_ESB_33360_33435",_"ESB_GNY_34060_34135")_ + 1 x_("MLX_ESB_33360_33435",_"ESB_TZX_33480_33560")_ + 1 x_("MLX_ESB_33360_33435",_"ESB_MQM_33770_33865")_ = 1
mp_c1_HTY_ESB_33360_33435_: 1 x_("HTY_ESB_33360_33435",_"ESB_ECN_34305_34375")_ + 1 x_("HTY_ESB_33360_33435",_"ESB_SAW_33480_33540")_ + 1 x_("HTY_ESB_33360_33435",_"ESB_SAW_33840_33900")_ + 1 x_("HTY_ESB_33360_33435",_"ESB_SZF_34100_34160")_ + 1 x_("HTY_ESB_33360_33435",_"ESB_ERC_33810_33890")_ + 1 x_("HTY_ESB_33360_33435",_"ESB_AJI_33490_33585")_ + 1 x_("HTY_ESB_33360_33435",_"ESB_HTY_34310_34390")_ + 1 x_("HTY_ESB_33360_33435",_"ESB_MLX_34300_34375")_ + 1 x_("HTY_ESB_33360_33435",_"ESB_ADA_34080_34140")_ + 1 x_("HTY_ESB_33360_33435",_"ESB_VAN_33565_33660")_ + 1 x_("HTY_ESB_33360_33435",_"ESB_ADB_33930_34010")_ + 1 x_("HTY_ESB_33360_33435",_"ESB_BAL_33505_33595")_ + 1 x_("HTY_ESB_33360_33435",_"ESB_SAW_33720_33780")_ + 1 x_("HTY_ESB_33360_33435",_"ESB_YEI_34315_34375")_ + 1 x_("HTY_ESB_33360_33435",_"ESB_GNY_34060_34135")_ + 1 x_("HTY_ESB_33360_33435",_"ESB_TZX_33480_33560")_ + 1 x_("HTY_ESB_33360_33435",_"ESB_MQM_33770_33865")_ = 1
mp_c1_SAW_ESB_33420_33480_: 1 x_("SAW_ESB_33420_33480",_"ESB_ECN_34305_34375")_ + 1 x_("SAW_ESB_33420_33480",_"ESB_SAW_33840_33900")_ + 1 x_("SAW_ESB_33420_33480",_"ESB_SAW_34920_34980")_ + 1 x_("SAW_ESB_33420_33480",_"ESB_SZF_34100_34160")_ + 1 x_("SAW_ESB_33420_33480",_"ESB_ERC_33810_33890")_ + 1 x_("SAW_ESB_33420_33480",_"ESB_HTY_34310_34390")_ + 1 x_("SAW_ESB_33420_33480",_"ESB_MLX_34300_34375")_ + 1 x_("SAW_ESB_33420_33480",_"ESB_ADA_34080_34140")_ + 1 x_("SAW_ESB_33420_33480",_"ESB_TZX_34920_35000")_ + 1 x_("SAW_ESB_33420_33480",_"ESB_VAN_33565_33660")_ + 1 x_("SAW_ESB_33420_33480",_"ESB_ADB_33930_34010")_ + 1 x_("SAW_ESB_33420_33480",_"ESB_SAW_33720_33780")_ + 1 x_("SAW_ESB_33420_33480",_"ESB_YEI_34315_34375")_ + 1 x_("SAW_ESB_33420_33480",_"ESB_GNY_34060_34135")_ + 1 x_("SAW_ESB_33420_33480",_"ESB_MQM_33770_33865")_ = 1
mp_c1_ADB_SAW_33455_33515_: 1 x_("ADB_SAW_33455_33515",_"SAW_ADB_34050_34110")_ + 1 x_("ADB_SAW_33455_33515",_"SAW_ESB_33960_34020")_ + 1 x_("ADB_SAW_33455_33515",_"SAW_TZX_33585_33685")_ + 1 x_("ADB_SAW_33455_33515",_"SAW_ADB_34800_34860")_ + 1 x_("ADB_SAW_33455_33515",_"SAW_VAS_33810_33890")_ + 1 x_("ADB_SAW_33455_33515",_"SAW_ESB_33600_33660")_ + 1 x_("ADB_SAW_33455_33515",_"SAW_AYT_33825_33890")_ + 1 x_("ADB_SAW_33455_33515",_"SAW_ESB_34860_34920")_ + 1 x_("ADB_SAW_33455_33515",_"SAW_ASR_34095_34180")_ = 1
mp_c1_ESB_SAW_33480_33540_: 1 x_("ESB_SAW_33480_33540",_"SAW_ADB_34050_34110")_ + 1 x_("ESB_SAW_33480_33540",_"SAW_ESB_33960_34020")_ + 1 x_("ESB_SAW_33480_33540",_"SAW_TZX_33585_33685")_ + 1 x_("ESB_SAW_33480_33540",_"SAW_ADB_34800_34860")_ + 1 x_("ESB_SAW_33480_33540",_"SAW_VAS_33810_33890")_ + 1 x_("ESB_SAW_33480_33540",_"SAW_ESB_33600_33660")_ + 1 x_("ESB_SAW_33480_33540",_"SAW_AYT_33825_33890")_ + 1 x_("ESB_SAW_33480_33540",_"SAW_ESB_34860_34920")_ + 1 x_("ESB_SAW_33480_33540",_"SAW_ASR_34095_34180")_ = 1
mp_c1_ESB_TZX_33480_33560_: 1 x_("ESB_TZX_33480_33560",_"TZX_ESB_33595_33675")_ + 1 x_("ESB_TZX_33480_33560",_"TZX_SAW_33720_33825")_ = 1
mp_c1_ESB_AJI_33490_33585_: 1 x_("ESB_AJI_33490_33585",_"AJI_ESB_33620_33725")_ = 1
mp_c1_ESB_BAL_33505_33595_: 1 x_("ESB_BAL_33505_33595",_"BAL_ESB_33630_33725")_ = 1
mp_c1_ESB_VAN_33565_33660_: 1 x_("ESB_VAN_33565_33660",_"VAN_ESB_33695_33800")_ = 1
mp_c1_SAW_TZX_33585_33685_: 1 x_("SAW_TZX_33585_33685",_"TZX_ESB_35035_35115")_ + 1 x_("SAW_TZX_33585_33685",_"TZX_SAW_33720_33825")_ = 1
mp_c1_TZX_ESB_33595_33675_: 1 x_("TZX_ESB_33595_33675",_"ESB_ECN_34305_34375")_ + 1 x_("TZX_ESB_33595_33675",_"ESB_BAL_34945_35035")_ + 1 x_("TZX_ESB_33595_33675",_"ESB_SAW_33840_33900")_ + 1 x_("TZX_ESB_33595_33675",_"ESB_SAW_34920_34980")_ + 1 x_("TZX_ESB_33595_33675",_"ESB_SZF_34100_34160")_ + 1 x_("TZX_ESB_33595_33675",_"ESB_ERC_33810_33890")_ + 1 x_("TZX_ESB_33595_33675",_"ESB_HTY_34310_34390")_ + 1 x_("TZX_ESB_33595_33675",_"ESB_MLX_34300_34375")_ + 1 x_("TZX_ESB_33595_33675",_"ESB_AYT_35100_35165")_ + 1 x_("TZX_ESB_33595_33675",_"ESB_ADA_34080_34140")_ + 1 x_("TZX_ESB_33595_33675",_"ESB_TZX_34920_35000")_ + 1 x_("TZX_ESB_33595_33675",_"ESB_AJI_34930_35025")_ + 1 x_("TZX_ESB_33595_33675",_"ESB_VAN_35005_35100")_ + 1 x_("TZX_ESB_33595_33675",_"ESB_ADB_33930_34010")_ + 1 x_("TZX_ESB_33595_33675",_"ESB_SAW_33720_33780")_ + 1 x_("TZX_ESB_33595_33675",_"ESB_YEI_34315_34375")_ + 1 x_("TZX_ESB_33595_33675",_"ESB_GNY_34060_34135")_ + 1 x_("TZX_ESB_33595_33675",_"ESB_MQM_33770_33865")_ = 1
mp_c1_SAW_ESB_33600_33660_: 1 x_("SAW_ESB_33600_33660",_"ESB_ECN_34305_34375")_ + 1 x_("SAW_ESB_33600_33660",_"ESB_BAL_34945_35035")_ + 1 x_("SAW_ESB_33600_33660",_"ESB_SAW_33840_33900")_ + 1 x_("SAW_ESB_33600_33660",_"ESB_SAW_34920_34980")_ + 1 x_("SAW_ESB_33600_33660",_"ESB_SZF_34100_34160")_ + 1 x_("SAW_ESB_33600_33660",_"ESB_ERC_33810_33890")_ + 1 x_("SAW_ESB_33600_33660",_"ESB_HTY_34310_34390")_ + 1 x_("SAW_ESB_33600_33660",_"ESB_MLX_34300_34375")_ + 1 x_("SAW_ESB_33600_33660",_"ESB_AYT_35100_35165")_ + 1 x_("SAW_ESB_33600_33660",_"ESB_ADA_34080_34140")_ + 1 x_("SAW_ESB_33600_33660",_"ESB_TZX_34920_35000")_ + 1 x_("SAW_ESB_33600_33660",_"ESB_AJI_34930_35025")_ + 1 x_("SAW_ESB_33600_33660",_"ESB_VAN_35005_35100")_ + 1 x_("SAW_ESB_33600_33660",_"ESB_ADB_33930_34010")_ + 1 x_("SAW_ESB_33600_33660",_"ESB_SAW_33720_33780")_ + 1 x_("SAW_ESB_33600_33660",_"ESB_YEI_34315_34375")_ + 1 x_("SAW_ESB_33600_33660",_"ESB_GNY_34060_34135")_ + 1 x_("SAW_ESB_33600_33660",_"ESB_MQM_33770_33865")_ = 1
mp_c1_AJI_ESB_33620_33725_: 1 x_("AJI_ESB_33620_33725",_"ESB_ECN_34305_34375")_ + 1 x_("AJI_ESB_33620_33725",_"ESB_BAL_34945_35035")_ + 1 x_("AJI_ESB_33620_33725",_"ESB_SAW_33840_33900")_ + 1 x_("AJI_ESB_33620_33725",_"ESB_SAW_34920_34980")_ + 1 x_("AJI_ESB_33620_33725",_"ESB_SZF_34100_34160")_ + 1 x_("AJI_ESB_33620_33725",_"ESB_ERC_33810_33890")_ + 1 x_("AJI_ESB_33620_33725",_"ESB_HTY_34310_34390")_ + 1 x_("AJI_ESB_33620_33725",_"ESB_MLX_34300_34375")_ + 1 x_("AJI_ESB_33620_33725",_"ESB_AYT_35100_35165")_ + 1 x_("AJI_ESB_33620_33725",_"ESB_ADA_34080_34140")_ + 1 x_("AJI_ESB_33620_33725",_"ESB_TZX_34920_35000")_ + 1 x_("AJI_ESB_33620_33725",_"ESB_AJI_34930_35025")_ + 1 x_("AJI_ESB_33620_33725",_"ESB_VAN_35005_35100")_ + 1 x_("AJI_ESB_33620_33725",_"ESB_ADB_33930_34010")_ + 1 x_("AJI_ESB_33620_33725",_"ESB_YEI_34315_34375")_ + 1 x_("AJI_ESB_33620_33725",_"ESB_GNY_34060_34135")_ + 1 x_("AJI_ESB_33620_33725",_"ESB_SAW_35160_35220")_ + 1 x_("AJI_ESB_33620_33725",_"ESB_MQM_33770_33865")_ = 1
mp_c1_BAL_ESB_33630_33725_: 1 x_("BAL_ESB_33630_33725",_"ESB_ECN_34305_34375")_ + 1 x_("BAL_ESB_33630_33725",_"ESB_BAL_34945_35035")_ + 1 x_("BAL_ESB_33630_33725",_"ESB_SAW_33840_33900")_ + 1 x_("BAL_ESB_33630_33725",_"ESB_SAW_34920_34980")_ + 1 x_("BAL_ESB_33630_33725",_"ESB_SZF_34100_34160")_ + 1 x_("BAL_ESB_33630_33725",_"ESB_ERC_33810_33890")_ + 1 x_("BAL_ESB_33630_33725",_"ESB_HTY_34310_34390")_ + 1 x_("BAL_ESB_33630_33725",_"ESB_MLX_34300_34375")_ + 1 x_("BAL_ESB_33630_33725",_"ESB_AYT_35100_35165")_ + 1 x_("BAL_ESB_33630_33725",_"ESB_ADA_34080_34140")_ + 1 x_("BAL_ESB_33630_33725",_"ESB_TZX_34920_35000")_ + 1 x_("BAL_ESB_33630_33725",_"ESB_AJI_34930_35025")_ + 1 x_("BAL_ESB_33630_33725",_"ESB_VAN_35005_35100")_ + 1 x_("BAL_ESB_33630_33725",_"ESB_ADB_33930_34010")_ + 1 x_("BAL_ESB_33630_33725",_"ESB_YEI_34315_34375")_ + 1 x_("BAL_ESB_33630_33725",_"ESB_GNY_34060_34135")_ + 1 x_("BAL_ESB_33630_33725",_"ESB_SAW_35160_35220")_ + 1 x_("BAL_ESB_33630_33725",_"ESB_MQM_33770_33865")_ = 1
mp_c1_VAN_ESB_33695_33800_: 1 x_("VAN_ESB_33695_33800",_"ESB_ECN_34305_34375")_ + 1 x_("VAN_ESB_33695_33800",_"ESB_BAL_34945_35035")_ + 1 x_("VAN_ESB_33695_33800",_"ESB_SAW_33840_33900")_ + 1 x_("VAN_ESB_33695_33800",_"ESB_SAW_34920_34980")_ + 1 x_("VAN_ESB_33695_33800",_"ESB_SZF_34100_34160")_ + 1 x_("VAN_ESB_33695_33800",_"ESB_HTY_34310_34390")_ + 1 x_("VAN_ESB_33695_33800",_"ESB_MLX_34300_34375")_ + 1 x_("VAN_ESB_33695_33800",_"ESB_AYT_35100_35165")_ + 1 x_("VAN_ESB_33695_33800",_"ESB_ADA_34080_34140")_ + 1 x_("VAN_ESB_33695_33800",_"ESB_TZX_34920_35000")_ + 1 x_("VAN_ESB_33695_33800",_"ESB_MQM_35210_35305")_ + 1 x_("VAN_ESB_33695_33800",_"ESB_AJI_34930_35025")_ + 1 x_("VAN_ESB_33695_33800",_"ESB_VAN_35005_35100")_ + 1 x_("VAN_ESB_33695_33800",_"ESB_ADB_33930_34010")_ + 1 x_("VAN_ESB_33695_33800",_"ESB_ECN_35220_35290")_ + 1 x_("VAN_ESB_33695_33800",_"ESB_YEI_34315_34375")_ + 1 x_("VAN_ESB_33695_33800",_"ESB_GNY_34060_34135")_ + 1 x_("VAN_ESB_33695_33800",_"ESB_SAW_35160_35220")_ = 1
mp_c1_TZX_SAW_33720_33825_: 1 x_("TZX_SAW_33720_33825",_"SAW_ADB_34050_34110")_ + 1 x_("TZX_SAW_33720_33825",_"SAW_ESB_33960_34020")_ + 1 x_("TZX_SAW_33720_33825",_"SAW_NAJ_35030_35170")_ + 1 x_("TZX_SAW_33720_33825",_"SAW_ESB_35040_35100")_ + 1 x_("TZX_SAW_33720_33825",_"SAW_ADB_34800_34860")_ + 1 x_("TZX_SAW_33720_33825",_"SAW_TZX_35025_35125")_ + 1 x_("TZX_SAW_33720_33825",_"SAW_AYT_35265_35330")_ + 1 x_("TZX_SAW_33720_33825",_"SAW_ESB_34860_34920")_ + 1 x_("TZX_SAW_33720_33825",_"SAW_ASR_34095_34180")_ = 1
mp_c1_ESB_SAW_33720_33780_: 1 x_("ESB_SAW_33720_33780",_"SAW_ADB_34050_34110")_ + 1 x_("ESB_SAW_33720_33780",_"SAW_ESB_33960_34020")_ + 1 x_("ESB_SAW_33720_33780",_"SAW_NAJ_35030_35170")_ + 1 x_("ESB_SAW_33720_33780",_"SAW_ESB_35040_35100")_ + 1 x_("ESB_SAW_33720_33780",_"SAW_ADB_34800_34860")_ + 1 x_("ESB_SAW_33720_33780",_"SAW_TZX_35025_35125")_ + 1 x_("ESB_SAW_33720_33780",_"SAW_AYT_33825_33890")_ + 1 x_("ESB_SAW_33720_33780",_"SAW_ESB_34860_34920")_ + 1 x_("ESB_SAW_33720_33780",_"SAW_ASR_34095_34180")_ = 1
mp_c1_ESB_MQM_33770_33865_: 1 x_("ESB_MQM_33770_33865",_"MQM_ESB_33900_33995")_ = 1
mp_c1_ESB_ERC_33810_33890_: 1 x_("ESB_ERC_33810_33890",_"ERC_ESB_33925_34005")_ = 1
mp_c1_SAW_VAS_33810_33890_: 1 x_("SAW_VAS_33810_33890",_"VAS_SAW_33925_34005")_ = 1
mp_c1_SAW_AYT_33825_33890_: 1 x_("SAW_AYT_33825_33890",_"AYT_ESB_35200_35265")_ + 1 x_("SAW_AYT_33825_33890",_"AYT_SAW_33930_33995")_ = 1
mp_c1_ESB_SAW_33840_33900_: 1 x_("ESB_SAW_33840_33900",_"SAW_ADB_34050_34110")_ + 1 x_("ESB_SAW_33840_33900",_"SAW_ESB_33960_34020")_ + 1 x_("ESB_SAW_33840_33900",_"SAW_NAJ_35030_35170")_ + 1 x_("ESB_SAW_33840_33900",_"SAW_ESB_35040_35100")_ + 1 x_("ESB_SAW_33840_33900",_"SAW_ADB_34800_34860")_ + 1 x_("ESB_SAW_33840_33900",_"SAW_TZX_35025_35125")_ + 1 x_("ESB_SAW_33840_33900",_"SAW_AYT_35265_35330")_ + 1 x_("ESB_SAW_33840_33900",_"SAW_ESB_34860_34920")_ + 1 x_("ESB_SAW_33840_33900",_"SAW_ASR_34095_34180")_ = 1
mp_c1_MQM_ESB_33900_33995_: 1 x_("MQM_ESB_33900_33995",_"ESB_ECN_34305_34375")_ + 1 x_("MQM_ESB_33900_33995",_"ESB_BAL_34945_35035")_ + 1 x_("MQM_ESB_33900_33995",_"ESB_SAW_34920_34980")_ + 1 x_("MQM_ESB_33900_33995",_"ESB_SZF_34100_34160")_ + 1 x_("MQM_ESB_33900_33995",_"ESB_SAW_35280_35340")_ + 1 x_("MQM_ESB_33900_33995",_"ESB_HTY_34310_34390")_ + 1 x_("MQM_ESB_33900_33995",_"ESB_MLX_34300_34375")_ + 1 x_("MQM_ESB_33900_33995",_"ESB_ADB_35370_35450")_ + 1 x_("MQM_ESB_33900_33995",_"ESB_AYT_35100_35165")_ + 1 x_("MQM_ESB_33900_33995",_"ESB_ADA_34080_34140")_ + 1 x_("MQM_ESB_33900_33995",_"ESB_TZX_34920_35000")_ + 1 x_("MQM_ESB_33900_33995",_"ESB_MQM_35210_35305")_ + 1 x_("MQM_ESB_33900_33995",_"ESB_AJI_34930_35025")_ + 1 x_("MQM_ESB_33900_33995",_"ESB_VAN_35005_35100")_ + 1 x_("MQM_ESB_33900_33995",_"ESB_ECN_35220_35290")_ + 1 x_("MQM_ESB_33900_33995",_"ESB_YEI_34315_34375")_ + 1 x_("MQM_ESB_33900_33995",_"ESB_ERC_35250_35330")_ + 1 x_("MQM_ESB_33900_33995",_"ESB_GNY_34060_34135")_ + 1 x_("MQM_ESB_33900_33995",_"ESB_SAW_35160_35220")_ = 1
mp_c1_ERC_ESB_33925_34005_: 1 x_("ERC_ESB_33925_34005",_"ESB_ECN_34305_34375")_ + 1 x_("ERC_ESB_33925_34005",_"ESB_BAL_34945_35035")_ + 1 x_("ERC_ESB_33925_34005",_"ESB_SAW_34920_34980")_ + 1 x_("ERC_ESB_33925_34005",_"ESB_SZF_34100_34160")_ + 1 x_("ERC_ESB_33925_34005",_"ESB_SAW_35280_35340")_ + 1 x_("ERC_ESB_33925_34005",_"ESB_HTY_34310_34390")_ + 1 x_("ERC_ESB_33925_34005",_"ESB_MLX_34300_34375")_ + 1 x_("ERC_ESB_33925_34005",_"ESB_ADB_35370_35450")_ + 1 x_("ERC_ESB_33925_34005",_"ESB_AYT_35100_35165")_ + 1 x_("ERC_ESB_33925_34005",_"ESB_ADA_34080_34140")_ + 1 x_("ERC_ESB_33925_34005",_"ESB_TZX_34920_35000")_ + 1 x_("ERC_ESB_33925_34005",_"ESB_MQM_35210_35305")_ + 1 x_("ERC_ESB_33925_34005",_"ESB_AJI_34930_35025")_ + 1 x_("ERC_ESB_33925_34005",_"ESB_VAN_35005_35100")_ + 1 x_("ERC_ESB_33925_34005",_"ESB_ECN_35220_35290")_ + 1 x_("ERC_ESB_33925_34005",_"ESB_YEI_34315_34375")_ + 1 x_("ERC_ESB_33925_34005",_"ESB_ERC_35250_35330")_ + 1 x_("ERC_ESB_33925_34005",_"ESB_GNY_34060_34135")_ + 1 x_("ERC_ESB_33925_34005",_"ESB_SAW_35160_35220")_ = 1
mp_c1_VAS_SAW_33925_34005_: 1 x_("VAS_SAW_33925_34005",_"SAW_ADB_34050_34110")_ + 1 x_("VAS_SAW_33925_34005",_"SAW_NAJ_35030_35170")_ + 1 x_("VAS_SAW_33925_34005",_"SAW_ESB_35040_35100")_ + 1 x_("VAS_SAW_33925_34005",_"SAW_ADB_34800_34860")_ + 1 x_("VAS_SAW_33925_34005",_"SAW_TZX_35025_35125")_ + 1 x_("VAS_SAW_33925_34005",_"SAW_ESB_35400_35460")_ + 1 x_("VAS_SAW_33925_34005",_"SAW_AYT_35265_35330")_ + 1 x_("VAS_SAW_33925_34005",_"SAW_ESB_34860_34920")_ + 1 x_("VAS_SAW_33925_34005",_"SAW_ASR_34095_34180")_ = 1
mp_c1_ESB_ADB_33930_34010_: 1 x_("ESB_ADB_33930_34010",_"ADB_SAW_34895_34955")_ + 1 x_("ESB_ADB_33930_34010",_"ADB_SAW_34145_34205")_ + 1 x_("ESB_ADB_33930_34010",_"ADB_ESB_34045_34120")_ = 1
mp_c1_AYT_SAW_33930_33995_: 1 x_("AYT_SAW_33930_33995",_"SAW_ADB_34050_34110")_ + 1 x_("AYT_SAW_33930_33995",_"SAW_NAJ_35030_35170")_ + 1 x_("AYT_SAW_33930_33995",_"SAW_ESB_35040_35100")_ + 1 x_("AYT_SAW_33930_33995",_"SAW_ADB_34800_34860")_ + 1 x_("AYT_SAW_33930_33995",_"SAW_TZX_35025_35125")_ + 1 x_("AYT_SAW_33930_33995",_"SAW_ESB_35400_35460")_ + 1 x_("AYT_SAW_33930_33995",_"SAW_AYT_35265_35330")_ + 1 x_("AYT_SAW_33930_33995",_"SAW_ESB_34860_34920")_ + 1 x_("AYT_SAW_33930_33995",_"SAW_ASR_34095_34180")_ = 1
mp_c1_SAW_ESB_33960_34020_: 1 x_("SAW_ESB_33960_34020",_"ESB_ECN_34305_34375")_ + 1 x_("SAW_ESB_33960_34020",_"ESB_BAL_34945_35035")_ + 1 x_("SAW_ESB_33960_34020",_"ESB_SAW_34920_34980")_ + 1 x_("SAW_ESB_33960_34020",_"ESB_SZF_34100_34160")_ + 1 x_("SAW_ESB_33960_34020",_"ESB_SAW_35280_35340")_ + 1 x_("SAW_ESB_33960_34020",_"ESB_HTY_34310_34390")_ + 1 x_("SAW_ESB_33960_34020",_"ESB_MLX_34300_34375")_ + 1 x_("SAW_ESB_33960_34020",_"ESB_ADB_35370_35450")_ + 1 x_("SAW_ESB_33960_34020",_"ESB_AYT_35100_35165")_ + 1 x_("SAW_ESB_33960_34020",_"ESB_ADA_34080_34140")_ + 1 x_("SAW_ESB_33960_34020",_"ESB_TZX_34920_35000")_ + 1 x_("SAW_ESB_33960_34020",_"ESB_MQM_35210_35305")_ + 1 x_("SAW_ESB_33960_34020",_"ESB_AJI_34930_35025")_ + 1 x_("SAW_ESB_33960_34020",_"ESB_VAN_35005_35100")_ + 1 x_("SAW_ESB_33960_34020",_"ESB_ECN_35220_35290")_ + 1 x_("SAW_ESB_33960_34020",_"ESB_YEI_34315_34375")_ + 1 x_("SAW_ESB_33960_34020",_"ESB_ERC_35250_35330")_ + 1 x_("SAW_ESB_33960_34020",_"ESB_GNY_34060_34135")_ + 1 x_("SAW_ESB_33960_34020",_"ESB_SAW_35160_35220")_ = 1
mp_c1_ADB_ESB_34045_34120_: 1 x_("ADB_ESB_34045_34120",_"ESB_ECN_34305_34375")_ + 1 x_("ADB_ESB_34045_34120",_"ESB_ADA_35520_35580")_ + 1 x_("ADB_ESB_34045_34120",_"ESB_SZF_35540_35600")_ + 1 x_("ADB_ESB_34045_34120",_"ESB_BAL_34945_35035")_ + 1 x_("ADB_ESB_34045_34120",_"ESB_SAW_34920_34980")_ + 1 x_("ADB_ESB_34045_34120",_"ESB_SAW_35280_35340")_ + 1 x_("ADB_ESB_34045_34120",_"ESB_HTY_34310_34390")_ + 1 x_("ADB_ESB_34045_34120",_"ESB_MLX_34300_34375")_ + 1 x_("ADB_ESB_34045_34120",_"ESB_ADB_35370_35450")_ + 1 x_("ADB_ESB_34045_34120",_"ESB_AYT_35100_35165")_ + 1 x_("ADB_ESB_34045_34120",_"ESB_TZX_34920_35000")_ + 1 x_("ADB_ESB_34045_34120",_"ESB_MQM_35210_35305")_ + 1 x_("ADB_ESB_34045_34120",_"ESB_AJI_34930_35025")_ + 1 x_("ADB_ESB_34045_34120",_"ESB_VAN_35005_35100")_ + 1 x_("ADB_ESB_34045_34120",_"ESB_ECN_35220_35290")_ + 1 x_("ADB_ESB_34045_34120",_"ESB_YEI_34315_34375")_ + 1 x_("ADB_ESB_34045_34120",_"ESB_ERC_35250_35330")_ + 1 x_("ADB_ESB_34045_34120",_"ESB_GNY_35500_35575")_ + 1 x_("ADB_ESB_34045_34120",_"ESB_SAW_35160_35220")_ = 1
mp_c1_SAW_ADB_34050_34110_: 1 x_("SAW_ADB_34050_34110",_"ADB_SAW_34895_34955")_ + 1 x_("SAW_ADB_34050_34110",_"ADB_ESB_35485_35560")_ + 1 x_("SAW_ADB_34050_34110",_"ADB_SAW_34145_34205")_ = 1
mp_c1_ESB_GNY_34060_34135_: 1 x_("ESB_GNY_34060_34135",_"GNY_ESB_34170_34250")_ = 1
mp_c1_ESB_ADA_34080_34140_: 1 x_("ESB_ADA_34080_34140",_"ADA_ESB_34180_34245")_ = 1
mp_c1_SAW_ASR_34095_34180_: 1 x_("SAW_ASR_34095_34180",_"ASR_SAW_34215_34305")_ = 1
mp_c1_ESB_SZF_34100_34160_: 1 x_("ESB_SZF_34100_34160",_"SZF_ESB_34195_34255")_ = 1
mp_c1_ADB_SAW_34145_34205_: 1 x_("ADB_SAW_34145_34205",_"SAW_NAJ_35030_35170")_ + 1 x_("ADB_SAW_34145_34205",_"SAW_ESB_35040_35100")_ + 1 x_("ADB_SAW_34145_34205",_"SAW_ADB_34800_34860")_ + 1 x_("ADB_SAW_34145_34205",_"SAW_ADB_35490_35550")_ + 1 x_("ADB_SAW_34145_34205",_"SAW_TZX_35025_35125")_ + 1 x_("ADB_SAW_34145_34205",_"SAW_ESB_35400_35460")_ + 1 x_("ADB_SAW_34145_34205",_"SAW_AYT_35265_35330")_ + 1 x_("ADB_SAW_34145_34205",_"SAW_KYA_35550_35620")_ + 1 x_("ADB_SAW_34145_34205",_"SAW_ASR_35535_35620")_ + 1 x_("ADB_SAW_34145_34205",_"SAW_ESB_34860_34920")_ = 1
mp_c1_GNY_ESB_34170_34250_: 1 x_("GNY_ESB_34170_34250",_"ESB_ECN_34305_34375")_ + 1 x_("GNY_ESB_34170_34250",_"ESB_ADA_35520_35580")_ + 1 x_("GNY_ESB_34170_34250",_"ESB_SZF_35540_35600")_ + 1 x_("GNY_ESB_34170_34250",_"ESB_BAL_34945_35035")_ + 1 x_("GNY_ESB_34170_34250",_"ESB_SAW_34920_34980")_ + 1 x_("GNY_ESB_34170_34250",_"ESB_SAW_35280_35340")_ + 1 x_("GNY_ESB_34170_34250",_"ESB_HTY_34310_34390")_ + 1 x_("GNY_ESB_34170_34250",_"ESB_MLX_34300_34375")_ + 1 x_("GNY_ESB_34170_34250",_"ESB_ADB_35370_35450")_ + 1 x_("GNY_ESB_34170_34250",_"ESB_AYT_35100_35165")_ + 1 x_("GNY_ESB_34170_34250",_"ESB_TZX_34920_35000")_ + 1 x_("GNY_ESB_34170_34250",_"ESB_MQM_35210_35305")_ + 1 x_("GNY_ESB_34170_34250",_"ESB_AJI_34930_35025")_ + 1 x_("GNY_ESB_34170_34250",_"ESB_VAN_35005_35100")_ + 1 x_("GNY_ESB_34170_34250",_"ESB_ECN_35220_35290")_ + 1 x_("GNY_ESB_34170_34250",_"ESB_YEI_34315_34375")_ + 1 x_("GNY_ESB_34170_34250",_"ESB_ERC_35250_35330")_ + 1 x_("GNY_ESB_34170_34250",_"ESB_GNY_35500_35575")_ + 1 x_("GNY_ESB_34170_34250",_"ESB_SAW_35160_35220")_ = 1
mp_c1_ADA_ESB_34180_34245_: 1 x_("ADA_ESB_34180_34245",_"ESB_ECN_34305_34375")_ + 1 x_("ADA_ESB_34180_34245",_"ESB_ADA_35520_35580")_ + 1 x_("ADA_ESB_34180_34245",_"ESB_SZF_35540_35600")_ + 1 x_("ADA_ESB_34180_34245",_"ESB_BAL_34945_35035")_ + 1 x_("ADA_ESB_34180_34245",_"ESB_SAW_34920_34980")_ + 1 x_("ADA_ESB_34180_34245",_"ESB_SAW_35280_35340")_ + 1 x_("ADA_ESB_34180_34245",_"ESB_HTY_34310_34390")_ + 1 x_("ADA_ESB_34180_34245",_"ESB_MLX_34300_34375")_ + 1 x_("ADA_ESB_34180_34245",_"ESB_ADB_35370_35450")_ + 1 x_("ADA_ESB_34180_34245",_"ESB_AYT_35100_35165")_ + 1 x_("ADA_ESB_34180_34245",_"ESB_TZX_34920_35000")_ + 1 x_("ADA_ESB_34180_34245",_"ESB_MQM_35210_35305")_ + 1 x_("ADA_ESB_34180_34245",_"ESB_AJI_34930_35025")_ + 1 x_("ADA_ESB_34180_34245",_"ESB_VAN_35005_35100")_ + 1 x_("ADA_ESB_34180_34245",_"ESB_ECN_35220_35290")_ + 1 x_("ADA_ESB_34180_34245",_"ESB_YEI_34315_34375")_ + 1 x_("ADA_ESB_34180_34245",_"ESB_ERC_35250_35330")_ + 1 x_("ADA_ESB_34180_34245",_"ESB_GNY_35500_35575")_ + 1 x_("ADA_ESB_34180_34245",_"ESB_SAW_35160_35220")_ = 1
mp_c1_SZF_ESB_34195_34255_: 1 x_("SZF_ESB_34195_34255",_"ESB_ECN_34305_34375")_ + 1 x_("SZF_ESB_34195_34255",_"ESB_ADA_35520_35580")_ + 1 x_("SZF_ESB_34195_34255",_"ESB_SZF_35540_35600")_ + 1 x_("SZF_ESB_34195_34255",_"ESB_BAL_34945_35035")_ + 1 x_("SZF_ESB_34195_34255",_"ESB_SAW_34920_34980")_ + 1 x_("SZF_ESB_34195_34255",_"ESB_SAW_35280_35340")_ + 1 x_("SZF_ESB_34195_34255",_"ESB_HTY_34310_34390")_ + 1 x_("SZF_ESB_34195_34255",_"ESB_MLX_34300_34375")_ + 1 x_("SZF_ESB_34195_34255",_"ESB_ADB_35370_35450")_ + 1 x_("SZF_ESB_34195_34255",_"ESB_AYT_35100_35165")_ + 1 x_("SZF_ESB_34195_34255",_"ESB_TZX_34920_35000")_ + 1 x_("SZF_ESB_34195_34255",_"ESB_MQM_35210_35305")_ + 1 x_("SZF_ESB_34195_34255",_"ESB_AJI_34930_35025")_ + 1 x_("SZF_ESB_34195_34255",_"ESB_VAN_35005_35100")_ + 1 x_("SZF_ESB_34195_34255",_"ESB_ECN_35220_35290")_ + 1 x_("SZF_ESB_34195_34255",_"ESB_YEI_34315_34375")_ + 1 x_("SZF_ESB_34195_34255",_"ESB_ERC_35250_35330")_ + 1 x_("SZF_ESB_34195_34255",_"ESB_GNY_35500_35575")_ + 1 x_("SZF_ESB_34195_34255",_"ESB_SAW_35160_35220")_ = 1
mp_c1_ASR_SAW_34215_34305_: 1 x_("ASR_SAW_34215_34305",_"SAW_NAJ_35030_35170")_ + 1 x_("ASR_SAW_34215_34305",_"SAW_ESB_35040_35100")_ + 1 x_("ASR_SAW_34215_34305",_"SAW_ADB_34800_34860")_ + 1 x_("ASR_SAW_34215_34305",_"SAW_ADB_35490_35550")_ + 1 x_("ASR_SAW_34215_34305",_"SAW_TZX_35025_35125")_ + 1 x_("ASR_SAW_34215_34305",_"SAW_ESB_35400_35460")_ + 1 x_("ASR_SAW_34215_34305",_"SAW_AYT_35265_35330")_ + 1 x_("ASR_SAW_34215_34305",_"SAW_KYA_35550_35620")_ + 1 x_("ASR_SAW_34215_34305",_"SAW_ASR_35535_35620")_ + 1 x_("ASR_SAW_34215_34305",_"SAW_ESB_34860_34920")_ = 1
mp_c1_ESB_MLX_34300_34375_: 1 x_("ESB_MLX_34300_34375",_"MLX_ESB_34800_34875")_ = 1
mp_c1_ESB_ECN_34305_34375_: 1 x_("ESB_ECN_34305_34375",_"ECN_ESB_35615_35685")_ + 1 x_("ESB_ECN_34305_34375",_"ECN_HTY_35400_35465")_ + 1 x_("ESB_ECN_34305_34375",_"ECN_ESB_34800_34870")_ = 1
mp_c1_ESB_HTY_34310_34390_: 1 x_("ESB_HTY_34310_34390",_"HTY_ECN_35505_35570")_ + 1 x_("ESB_HTY_34310_34390",_"HTY_ESB_34800_34875")_ = 1
mp_c1_ESB_YEI_34315_34375_: 1 x_("ESB_YEI_34315_34375",_"YEI_ESB_34800_34860")_ = 1
mp_c1_SAW_ADB_34800_34860_: 1 x_("SAW_ADB_34800_34860",_"ADB_SAW_35585_35645")_ + 1 x_("SAW_ADB_34800_34860",_"ADB_SAW_34895_34955")_ + 1 x_("SAW_ADB_34800_34860",_"ADB_ESB_35485_35560")_ = 1
mp_c1_ECN_ESB_34800_34870_: 1 x_("ECN_ESB_34800_34870",_"ESB_ADA_35520_35580")_ + 1 x_("ECN_ESB_34800_34870",_"ESB_SZF_35540_35600")_ + 1 x_("ECN_ESB_34800_34870",_"ESB_HTY_35750_35830")_ + 1 x_("ECN_ESB_34800_34870",_"ESB_ECN_35745_35815")_ + 1 x_("ECN_ESB_34800_34870",_"ESB_BAL_34945_35035")_ + 1 x_("ECN_ESB_34800_34870",_"ESB_SAW_34920_34980")_ + 1 x_("ECN_ESB_34800_34870",_"ESB_SAW_35280_35340")_ + 1 x_("ECN_ESB_34800_34870",_"ESB_ADB_35370_35450")_ + 1 x_("ECN_ESB_34800_34870",_"ESB_AYT_35100_35165")_ + 1 x_("ECN_ESB_34800_34870",_"ESB_TZX_34920_35000")_ + 1 x_("ECN_ESB_34800_34870",_"ESB_MQM_35210_35305")_ + 1 x_("ECN_ESB_34800_34870",_"ESB_AJI_34930_35025")_ + 1 x_("ECN_ESB_34800_34870",_"ESB_VAN_35005_35100")_ + 1 x_("ECN_ESB_34800_34870",_"ESB_YEI_35755_35815")_ + 1 x_("ECN_ESB_34800_34870",_"ESB_ECN_35220_35290")_ + 1 x_("ECN_ESB_34800_34870",_"ESB_ERC_35250_35330")_ + 1 x_("ECN_ESB_34800_34870",_"ESB_MLX_35740_35815")_ + 1 x_("ECN_ESB_34800_34870",_"ESB_GNY_35500_35575")_ + 1 x_("ECN_ESB_34800_34870",_"ESB_SAW_35160_35220")_ = 1
mp_c1_YEI_ESB_34800_34860_: 1 x_("YEI_ESB_34800_34860",_"ESB_ADA_35520_35580")_ + 1 x_("YEI_ESB_34800_34860",_"ESB_SZF_35540_35600")_ + 1 x_("YEI_ESB_34800_34860",_"ESB_HTY_35750_35830")_ + 1 x_("YEI_ESB_34800_34860",_"ESB_ECN_35745_35815")_ + 1 x_("YEI_ESB_34800_34860",_"ESB_BAL_34945_35035")_ + 1 x_("YEI_ESB_34800_34860",_"ESB_SAW_34920_34980")_ + 1 x_("YEI_ESB_34800_34860",_"ESB_SAW_35280_35340")_ + 1 x_("YEI_ESB_34800_34860",_"ESB_ADB_35370_35450")_ + 1 x_("YEI_ESB_34800_34860",_"ESB_AYT_35100_35165")_ + 1 x_("YEI_ESB_34800_34860",_"ESB_TZX_34920_35000")_ + 1 x_("YEI_ESB_34800_34860",_"ESB_MQM_35210_35305")_ + 1 x_("YEI_ESB_34800_34860",_"ESB_AJI_34930_35025")_ + 1 x_("YEI_ESB_34800_34860",_"ESB_VAN_35005_35100")_ + 1 x_("YEI_ESB_34800_34860",_"ESB_YEI_35755_35815")_ + 1 x_("YEI_ESB_34800_34860",_"ESB_ECN_35220_35290")_ + 1 x_("YEI_ESB_34800_34860",_"ESB_ERC_35250_35330")_ + 1 x_("YEI_ESB_34800_34860",_"ESB_MLX_35740_35815")_ + 1 x_("YEI_ESB_34800_34860",_"ESB_GNY_35500_35575")_ + 1 x_("YEI_ESB_34800_34860",_"ESB_SAW_35160_35220")_ = 1
mp_c1_MLX_ESB_34800_34875_: 1 x_("MLX_ESB_34800_34875",_"ESB_ADA_35520_35580")_ + 1 x_("MLX_ESB_34800_34875",_"ESB_SZF_35540_35600")_ + 1 x_("MLX_ESB_34800_34875",_"ESB_HTY_35750_35830")_ + 1 x_("MLX_ESB_34800_34875",_"ESB_ECN_35745_35815")_ + 1 x_("MLX_ESB_34800_34875",_"ESB_BAL_34945_35035")_ + 1 x_("MLX_ESB_34800_34875",_"ESB_SAW_34920_34980")_ + 1 x_("MLX_ESB_34800_34875",_"ESB_SAW_35280_35340")_ + 1 x_("MLX_ESB_34800_34875",_"ESB_ADB_35370_35450")_ + 1 x_("MLX_ESB_34800_34875",_"ESB_AYT_35100_35165")_ + 1 x_("MLX_ESB_34800_34875",_"ESB_TZX_34920_35000")_ + 1 x_("MLX_ESB_34800_34875",_"ESB_MQM_35210_35305")_ + 1 x_("MLX_ESB_34800_34875",_"ESB_AJI_34930_35025")_ + 1 x_("MLX_ESB_34800_34875",_"ESB_VAN_35005_35100")_ + 1 x_("MLX_ESB_34800_34875",_"ESB_YEI_35755_35815")_ + 1 x_("MLX_ESB_34800_34875",_"ESB_ECN_35220_35290")_ + 1 x_("MLX_ESB_34800_34875",_"ESB_ERC_35250_35330")_ + 1 x_("MLX_ESB_34800_34875",_"ESB_MLX_35740_35815")_ + 1 x_("MLX_ESB_34800_34875",_"ESB_GNY_35500_35575")_ + 1 x_("MLX_ESB_34800_34875",_"ESB_SAW_35160_35220")_ = 1
mp_c1_HTY_ESB_34800_34875_: 1 x_("HTY_ESB_34800_34875",_"ESB_ADA_35520_35580")_ + 1 x_("HTY_ESB_34800_34875",_"ESB_SZF_35540_35600")_ + 1 x_("HTY_ESB_34800_34875",_"ESB_HTY_35750_35830")_ + 1 x_("HTY_ESB_34800_34875",_"ESB_ECN_35745_35815")_ + 1 x_("HTY_ESB_34800_34875",_"ESB_BAL_34945_35035")_ + 1 x_("HTY_ESB_34800_34875",_"ESB_SAW_34920_34980")_ + 1 x_("HTY_ESB_34800_34875",_"ESB_SAW_35280_35340")_ + 1 x_("HTY_ESB_34800_34875",_"ESB_ADB_35370_35450")_ + 1 x_("HTY_ESB_34800_34875",_"ESB_AYT_35100_35165")_ + 1 x_("HTY_ESB_34800_34875",_"ESB_TZX_34920_35000")_ + 1 x_("HTY_ESB_34800_34875",_"ESB_MQM_35210_35305")_ + 1 x_("HTY_ESB_34800_34875",_"ESB_AJI_34930_35025")_ + 1 x_("HTY_ESB_34800_34875",_"ESB_VAN_35005_35100")_ + 1 x_("HTY_ESB_34800_34875",_"ESB_YEI_35755_35815")_ + 1 x_("HTY_ESB_34800_34875",_"ESB_ECN_35220_35290")_ + 1 x_("HTY_ESB_34800_34875",_"ESB_ERC_35250_35330")_ + 1 x_("HTY_ESB_34800_34875",_"ESB_MLX_35740_35815")_ + 1 x_("HTY_ESB_34800_34875",_"ESB_GNY_35500_35575")_ + 1 x_("HTY_ESB_34800_34875",_"ESB_SAW_35160_35220")_ = 1
mp_c1_SAW_ESB_34860_34920_: 1 x_("SAW_ESB_34860_34920",_"ESB_TZX_36360_36440")_ + 1 x_("SAW_ESB_34860_34920",_"ESB_ADA_35520_35580")_ + 1 x_("SAW_ESB_34860_34920",_"ESB_SZF_35540_35600")_ + 1 x_("SAW_ESB_34860_34920",_"ESB_HTY_35750_35830")_ + 1 x_("SAW_ESB_34860_34920",_"ESB_ECN_35745_35815")_ + 1 x_("SAW_ESB_34860_34920",_"ESB_SAW_35280_35340")_ + 1 x_("SAW_ESB_34860_34920",_"ESB_ADB_35370_35450")_ + 1 x_("SAW_ESB_34860_34920",_"ESB_AYT_35100_35165")_ + 1 x_("SAW_ESB_34860_34920",_"ESB_MQM_35210_35305")_ + 1 x_("SAW_ESB_34860_34920",_"ESB_VAN_35005_35100")_ + 1 x_("SAW_ESB_34860_34920",_"ESB_SAW_36360_36420")_ + 1 x_("SAW_ESB_34860_34920",_"ESB_YEI_35755_35815")_ + 1 x_("SAW_ESB_34860_34920",_"ESB_ECN_35220_35290")_ + 1 x_("SAW_ESB_34860_34920",_"ESB_ERC_35250_35330")_ + 1 x_("SAW_ESB_34860_34920",_"ESB_MLX_35740_35815")_ + 1 x_("SAW_ESB_34860_34920",_"ESB_GNY_35500_35575")_ + 1 x_("SAW_ESB_34860_34920",_"ESB_SAW_35160_35220")_ = 1
mp_c1_ADB_SAW_34895_34955_: 1 x_("ADB_SAW_34895_34955",_"SAW_NAJ_35030_35170")_ + 1 x_("ADB_SAW_34895_34955",_"SAW_ESB_35040_35100")_ + 1 x_("ADB_SAW_34895_34955",_"SAW_ADB_35490_35550")_ + 1 x_("ADB_SAW_34895_34955",_"SAW_TZX_35025_35125")_ + 1 x_("ADB_SAW_34895_34955",_"SAW_ADB_36240_36300")_ + 1 x_("ADB_SAW_34895_34955",_"SAW_ESB_35400_35460")_ + 1 x_("ADB_SAW_34895_34955",_"SAW_AYT_35265_35330")_ + 1 x_("ADB_SAW_34895_34955",_"SAW_KYA_35550_35620")_ + 1 x_("ADB_SAW_34895_34955",_"SAW_ESB_36300_36360")_ + 1 x_("ADB_SAW_34895_34955",_"SAW_ASR_35535_35620")_ = 1
mp_c1_ESB_SAW_34920_34980_: 1 x_("ESB_SAW_34920_34980",_"SAW_NAJ_35030_35170")_ + 1 x_("ESB_SAW_34920_34980",_"SAW_ESB_35040_35100")_ + 1 x_("ESB_SAW_34920_34980",_"SAW_ADB_35490_35550")_ + 1 x_("ESB_SAW_34920_34980",_"SAW_TZX_35025_35125")_ + 1 x_("ESB_SAW_34920_34980",_"SAW_ADB_36240_36300")_ + 1 x_("ESB_SAW_34920_34980",_"SAW_ESB_35400_35460")_ + 1 x_("ESB_SAW_34920_34980",_"SAW_AYT_35265_35330")_ + 1 x_("ESB_SAW_34920_34980",_"SAW_KYA_35550_35620")_ + 1 x_("ESB_SAW_34920_34980",_"SAW_ESB_36300_36360")_ + 1 x_("ESB_SAW_34920_34980",_"SAW_ASR_35535_35620")_ = 1
mp_c1_ESB_TZX_34920_35000_: 1 x_("ESB_TZX_34920_35000",_"TZX_SAW_35160_35265")_ + 1 x_("ESB_TZX_34920_35000",_"TZX_ESB_35035_35115")_ = 1
mp_c1_ESB_AJI_34930_35025_: 1 x_("ESB_AJI_34930_35025",_"AJI_ESB_35060_35165")_ = 1
mp_c1_ESB_BAL_34945_35035_: 1 x_("ESB_BAL_34945_35035",_"BAL_ESB_35070_35165")_ = 1
mp_c1_ESB_VAN_35005_35100_: 1 x_("ESB_VAN_35005_35100",_"VAN_ESB_35135_35240")_ = 1
mp_c1_SAW_TZX_35025_35125_: 1 x_("SAW_TZX_35025_35125",_"TZX_SAW_35160_35265")_ + 1 x_("SAW_TZX_35025_35125",_"TZX_ESB_36475_36555")_ = 1
mp_c1_SAW_NAJ_35030_35170_: 1 x_("SAW_NAJ_35030_35170",_"NAJ_SAW_35235_35390")_ = 1
mp_c1_TZX_ESB_35035_35115_: 1 x_("TZX_ESB_35035_35115",_"ESB_TZX_36360_36440")_ + 1 x_("TZX_ESB_35035_35115",_"ESB_ADA_35520_35580")_ + 1 x_("TZX_ESB_35035_35115",_"ESB_SZF_35540_35600")_ + 1 x_("TZX_ESB_35035_35115",_"ESB_HTY_35750_35830")_ + 1 x_("TZX_ESB_35035_35115",_"ESB_ECN_35745_35815")_ + 1 x_("TZX_ESB_35035_35115",_"ESB_BAL_36385_36475")_ + 1 x_("TZX_ESB_35035_35115",_"ESB_AJI_36370_36465")_ + 1 x_("TZX_ESB_35035_35115",_"ESB_SAW_35280_35340")_ + 1 x_("TZX_ESB_35035_35115",_"ESB_ADB_35370_35450")_ + 1 x_("TZX_ESB_35035_35115",_"ESB_MQM_35210_35305")_ + 1 x_("TZX_ESB_35035_35115",_"ESB_SAW_36360_36420")_ + 1 x_("TZX_ESB_35035_35115",_"ESB_YEI_35755_35815")_ + 1 x_("TZX_ESB_35035_35115",_"ESB_ECN_35220_35290")_ + 1 x_("TZX_ESB_35035_35115",_"ESB_ERC_35250_35330")_ + 1 x_("TZX_ESB_35035_35115",_"ESB_MLX_35740_35815")_ + 1 x_("TZX_ESB_35035_35115",_"ESB_VAN_36445_36540")_ + 1 x_("TZX_ESB_35035_35115",_"ESB_GNY_35500_35575")_ + 1 x_("TZX_ESB_35035_35115",_"ESB_SAW_35160_35220")_ = 1
mp_c1_SAW_ESB_35040_35100_: 1 x_("SAW_ESB_35040_35100",_"ESB_TZX_36360_36440")_ + 1 x_("SAW_ESB_35040_35100",_"ESB_ADA_35520_35580")_ + 1 x_("SAW_ESB_35040_35100",_"ESB_SZF_35540_35600")_ + 1 x_("SAW_ESB_35040_35100",_"ESB_HTY_35750_35830")_ + 1 x_("SAW_ESB_35040_35100",_"ESB_ECN_35745_35815")_ + 1 x_("SAW_ESB_35040_35100",_"ESB_BAL_36385_36475")_ + 1 x_("SAW_ESB_35040_35100",_"ESB_AJI_36370_36465")_ + 1 x_("SAW_ESB_35040_35100",_"ESB_SAW_35280_35340")_ + 1 x_("SAW_ESB_35040_35100",_"ESB_ADB_35370_35450")_ + 1 x_("SAW_ESB_35040_35100",_"ESB_MQM_35210_35305")_ + 1 x_("SAW_ESB_35040_35100",_"ESB_SAW_36360_36420")_ + 1 x_("SAW_ESB_35040_35100",_"ESB_YEI_35755_35815")_ + 1 x_("SAW_ESB_35040_35100",_"ESB_ECN_35220_35290")_ + 1 x_("SAW_ESB_35040_35100",_"ESB_ERC_35250_35330")_ + 1 x_("SAW_ESB_35040_35100",_"ESB_MLX_35740_35815")_ + 1 x_("SAW_ESB_35040_35100",_"ESB_VAN_36445_36540")_ + 1 x_("SAW_ESB_35040_35100",_"ESB_GNY_35500_35575")_ + 1 x_("SAW_ESB_35040_35100",_"ESB_SAW_35160_35220")_ = 1
mp_c1_AJI_ESB_35060_35165_: 1 x_("AJI_ESB_35060_35165",_"ESB_TZX_36360_36440")_ + 1 x_("AJI_ESB_35060_35165",_"ESB_ADA_35520_35580")_ + 1 x_("AJI_ESB_35060_35165",_"ESB_SZF_35540_35600")_ + 1 x_("AJI_ESB_35060_35165",_"ESB_HTY_35750_35830")_ + 1 x_("AJI_ESB_35060_35165",_"ESB_ECN_35745_35815")_ + 1 x_("AJI_ESB_35060_35165",_"ESB_BAL_36385_36475")_ + 1 x_("AJI_ESB_35060_35165",_"ESB_AJI_36370_36465")_ + 1 x_("AJI_ESB_35060_35165",_"ESB_SAW_35280_35340")_ + 1 x_("AJI_ESB_35060_35165",_"ESB_ADB_35370_35450")_ + 1 x_("AJI_ESB_35060_35165",_"ESB_MQM_35210_35305")_ + 1 x_("AJI_ESB_35060_35165",_"ESB_SAW_36360_36420")_ + 1 x_("AJI_ESB_35060_35165",_"ESB_YEI_35755_35815")_ + 1 x_("AJI_ESB_35060_35165",_"ESB_ECN_35220_35290")_ + 1 x_("AJI_ESB_35060_35165",_"ESB_ERC_35250_35330")_ + 1 x_("AJI_ESB_35060_35165",_"ESB_MLX_35740_35815")_ + 1 x_("AJI_ESB_35060_35165",_"ESB_VAN_36445_36540")_ + 1 x_("AJI_ESB_35060_35165",_"ESB_GNY_35500_35575")_ + 1 x_("AJI_ESB_35060_35165",_"ESB_SAW_36600_36660")_ = 1
mp_c1_BAL_ESB_35070_35165_: 1 x_("BAL_ESB_35070_35165",_"ESB_TZX_36360_36440")_ + 1 x_("BAL_ESB_35070_35165",_"ESB_ADA_35520_35580")_ + 1 x_("BAL_ESB_35070_35165",_"ESB_SZF_35540_35600")_ + 1 x_("BAL_ESB_35070_35165",_"ESB_HTY_35750_35830")_ + 1 x_("BAL_ESB_35070_35165",_"ESB_ECN_35745_35815")_ + 1 x_("BAL_ESB_35070_35165",_"ESB_BAL_36385_36475")_ + 1 x_("BAL_ESB_35070_35165",_"ESB_AJI_36370_36465")_ + 1 x_("BAL_ESB_35070_35165",_"ESB_SAW_35280_35340")_ + 1 x_("BAL_ESB_35070_35165",_"ESB_ADB_35370_35450")_ + 1 x_("BAL_ESB_35070_35165",_"ESB_MQM_35210_35305")_ + 1 x_("BAL_ESB_35070_35165",_"ESB_SAW_36360_36420")_ + 1 x_("BAL_ESB_35070_35165",_"ESB_YEI_35755_35815")_ + 1 x_("BAL_ESB_35070_35165",_"ESB_ECN_35220_35290")_ + 1 x_("BAL_ESB_35070_35165",_"ESB_ERC_35250_35330")_ + 1 x_("BAL_ESB_35070_35165",_"ESB_MLX_35740_35815")_ + 1 x_("BAL_ESB_35070_35165",_"ESB_VAN_36445_36540")_ + 1 x_("BAL_ESB_35070_35165",_"ESB_GNY_35500_35575")_ + 1 x_("BAL_ESB_35070_35165",_"ESB_SAW_36600_36660")_ = 1
mp_c1_ESB_AYT_35100_35165_: 1 x_("ESB_AYT_35100_35165",_"AYT_SAW_35370_35435")_ + 1 x_("ESB_AYT_35100_35165",_"AYT_ESB_35200_35265")_ = 1
mp_c1_VAN_ESB_35135_35240_: 1 x_("VAN_ESB_35135_35240",_"ESB_TZX_36360_36440")_ + 1 x_("VAN_ESB_35135_35240",_"ESB_ADA_35520_35580")_ + 1 x_("VAN_ESB_35135_35240",_"ESB_SZF_35540_35600")_ + 1 x_("VAN_ESB_35135_35240",_"ESB_HTY_35750_35830")_ + 1 x_("VAN_ESB_35135_35240",_"ESB_MQM_36650_36745")_ + 1 x_("VAN_ESB_35135_35240",_"ESB_ECN_35745_35815")_ + 1 x_("VAN_ESB_35135_35240",_"ESB_BAL_36385_36475")_ + 1 x_("VAN_ESB_35135_35240",_"ESB_AJI_36370_36465")_ + 1 x_("VAN_ESB_35135_35240",_"ESB_SAW_35280_35340")_ + 1 x_("VAN_ESB_35135_35240",_"ESB_ECN_36660_36730")_ + 1 x_("VAN_ESB_35135_35240",_"ESB_ADB_35370_35450")_ + 1 x_("VAN_ESB_35135_35240",_"ESB_SAW_36360_36420")_ + 1 x_("VAN_ESB_35135_35240",_"ESB_YEI_35755_35815")_ + 1 x_("VAN_ESB_35135_35240",_"ESB_MLX_35740_35815")_ + 1 x_("VAN_ESB_35135_35240",_"ESB_VAN_36445_36540")_ + 1 x_("VAN_ESB_35135_35240",_"ESB_GNY_35500_35575")_ + 1 x_("VAN_ESB_35135_35240",_"ESB_SAW_36600_36660")_ = 1
mp_c1_ESB_SAW_35160_35220_: 1 x_("ESB_SAW_35160_35220",_"SAW_ESB_36480_36540")_ + 1 x_("ESB_SAW_35160_35220",_"SAW_ADB_35490_35550")_ + 1 x_("ESB_SAW_35160_35220",_"SAW_ADB_36240_36300")_ + 1 x_("ESB_SAW_35160_35220",_"SAW_ESB_35400_35460")_ + 1 x_("ESB_SAW_35160_35220",_"SAW_AYT_35265_35330")_ + 1 x_("ESB_SAW_35160_35220",_"SAW_KYA_35550_35620")_ + 1 x_("ESB_SAW_35160_35220",_"SAW_ESB_36300_36360")_ + 1 x_("ESB_SAW_35160_35220",_"SAW_TZX_36465_36565")_ + 1 x_("ESB_SAW_35160_35220",_"SAW_ASR_35535_35620")_ = 1
mp_c1_TZX_SAW_35160_35265_: 1 x_("TZX_SAW_35160_35265",_"SAW_ESB_36480_36540")_ + 1 x_("TZX_SAW_35160_35265",_"SAW_ADB_35490_35550")_ + 1 x_("TZX_SAW_35160_35265",_"SAW_ADB_36240_36300")_ + 1 x_("TZX_SAW_35160_35265",_"SAW_ESB_35400_35460")_ + 1 x_("TZX_SAW_35160_35265",_"SAW_KYA_35550_35620")_ + 1 x_("TZX_SAW_35160_35265",_"SAW_VAS_36690_36770")_ + 1 x_("TZX_SAW_35160_35265",_"SAW_ESB_36300_36360")_ + 1 x_("TZX_SAW_35160_35265",_"SAW_TZX_36465_36565")_ + 1 x_("TZX_SAW_35160_35265",_"SAW_ASR_35535_35620")_ + 1 x_("TZX_SAW_35160_35265",_"SAW_AYT_36705_36770")_ = 1
mp_c1_AYT_ESB_35200_35265_: 1 x_("AYT_ESB_35200_35265",_"ESB_TZX_36360_36440")_ + 1 x_("AYT_ESB_35200_35265",_"ESB_ADA_35520_35580")_ + 1 x_("AYT_ESB_35200_35265",_"ESB_SZF_35540_35600")_ + 1 x_("AYT_ESB_35200_35265",_"ESB_HTY_35750_35830")_ + 1 x_("AYT_ESB_35200_35265",_"ESB_MQM_36650_36745")_ + 1 x_("AYT_ESB_35200_35265",_"ESB_ECN_35745_35815")_ + 1 x_("AYT_ESB_35200_35265",_"ESB_BAL_36385_36475")_ + 1 x_("AYT_ESB_35200_35265",_"ESB_AJI_36370_36465")_ + 1 x_("AYT_ESB_35200_35265",_"ESB_ECN_36660_36730")_ + 1 x_("AYT_ESB_35200_35265",_"ESB_ADB_35370_35450")_ + 1 x_("AYT_ESB_35200_35265",_"ESB_SAW_36360_36420")_ + 1 x_("AYT_ESB_35200_35265",_"ESB_YEI_35755_35815")_ + 1 x_("AYT_ESB_35200_35265",_"ESB_MLX_35740_35815")_ + 1 x_("AYT_ESB_35200_35265",_"ESB_VAN_36445_36540")_ + 1 x_("AYT_ESB_35200_35265",_"ESB_ERC_36690_36770")_ + 1 x_("AYT_ESB_35200_35265",_"ESB_GNY_35500_35575")_ + 1 x_("AYT_ESB_35200_35265",_"ESB_SAW_36600_36660")_ = 1
mp_c1_ESB_MQM_35210_35305_: 1 x_("ESB_MQM_35210_35305",_"MQM_ESB_35340_35435")_ = 1
mp_c1_ESB_ECN_35220_35290_: 1 x_("ESB_ECN_35220_35290",_"ECN_ESB_35615_35685")_ + 1 x_("ESB_ECN_35220_35290",_"ECN_HTY_35400_35465")_ + 1 x_("ESB_ECN_35220_35290",_"ECN_ESB_36240_36310")_ = 1
mp_c1_NAJ_SAW_35235_35390_: 1 x_("NAJ_SAW_35235_35390",_"SAW_ESB_36480_36540")_ + 1 x_("NAJ_SAW_35235_35390",_"SAW_ADB_35490_35550")_ + 1 x_("NAJ_SAW_35235_35390",_"SAW_ADB_36240_36300")_ + 1 x_("NAJ_SAW_35235_35390",_"SAW_KYA_35550_35620")_ + 1 x_("NAJ_SAW_35235_35390",_"SAW_VAS_36690_36770")_ + 1 x_("NAJ_SAW_35235_35390",_"SAW_ESB_36300_36360")_ + 1 x_("NAJ_SAW_35235_35390",_"SAW_TZX_36465_36565")_ + 1 x_("NAJ_SAW_35235_35390",_"SAW_ASR_35535_35620")_ + 1 x_("NAJ_SAW_35235_35390",_"SAW_AYT_36705_36770")_ = 1
mp_c1_ESB_ERC_35250_35330_: 1 x_("ESB_ERC_35250_35330",_"ERC_ESB_35365_35445")_ = 1
mp_c1_SAW_AYT_35265_35330_: 1 x_("SAW_AYT_35265_35330",_"AYT_SAW_35370_35435")_ = 1
mp_c1_ESB_SAW_35280_35340_: 1 x_("ESB_SAW_35280_35340",_"SAW_ESB_36480_36540")_ + 1 x_("ESB_SAW_35280_35340",_"SAW_ADB_35490_35550")_ + 1 x_("ESB_SAW_35280_35340",_"SAW_ADB_36240_36300")_ + 1 x_("ESB_SAW_35280_35340",_"SAW_ESB_35400_35460")_ + 1 x_("ESB_SAW_35280_35340",_"SAW_KYA_35550_35620")_ + 1 x_("ESB_SAW_35280_35340",_"SAW_VAS_36690_36770")_ + 1 x_("ESB_SAW_35280_35340",_"SAW_ESB_36300_36360")_ + 1 x_("ESB_SAW_35280_35340",_"SAW_TZX_36465_36565")_ + 1 x_("ESB_SAW_35280_35340",_"SAW_ASR_35535_35620")_ + 1 x_("ESB_SAW_35280_35340",_"SAW_AYT_36705_36770")_ = 1
mp_c1_MQM_ESB_35340_35435_: 1 x_("MQM_ESB_35340_35435",_"ESB_TZX_36360_36440")_ + 1 x_("MQM_ESB_35340_35435",_"ESB_ADA_35520_35580")_ + 1 x_("MQM_ESB_35340_35435",_"ESB_ADB_36810_36890")_ + 1 x_("MQM_ESB_35340_35435",_"ESB_SZF_35540_35600")_ + 1 x_("MQM_ESB_35340_35435",_"ESB_HTY_35750_35830")_ + 1 x_("MQM_ESB_35340_35435",_"ESB_MQM_36650_36745")_ + 1 x_("MQM_ESB_35340_35435",_"ESB_ECN_35745_35815")_ + 1 x_("MQM_ESB_35340_35435",_"ESB_BAL_36385_36475")_ + 1 x_("MQM_ESB_35340_35435",_"ESB_AJI_36370_36465")_ + 1 x_("MQM_ESB_35340_35435",_"ESB_ECN_36660_36730")_ + 1 x_("MQM_ESB_35340_35435",_"ESB_SAW_36720_36780")_ + 1 x_("MQM_ESB_35340_35435",_"ESB_SAW_36360_36420")_ + 1 x_("MQM_ESB_35340_35435",_"ESB_YEI_35755_35815")_ + 1 x_("MQM_ESB_35340_35435",_"ESB_MLX_35740_35815")_ + 1 x_("MQM_ESB_35340_35435",_"ESB_VAN_36445_36540")_ + 1 x_("MQM_ESB_35340_35435",_"ESB_ERC_36690_36770")_ + 1 x_("MQM_ESB_35340_35435",_"ESB_GNY_35500_35575")_ + 1 x_("MQM_ESB_35340_35435",_"ESB_SAW_36600_36660")_ = 1
mp_c1_ERC_ESB_35365_35445_: 1 x_("ERC_ESB_35365_35445",_"ESB_TZX_36360_36440")_ + 1 x_("ERC_ESB_35365_35445",_"ESB_ADA_35520_35580")_ + 1 x_("ERC_ESB_35365_35445",_"ESB_ADB_36810_36890")_ + 1 x_("ERC_ESB_35365_35445",_"ESB_SZF_35540_35600")_ + 1 x_("ERC_ESB_35365_35445",_"ESB_HTY_35750_35830")_ + 1 x_("ERC_ESB_35365_35445",_"ESB_MQM_36650_36745")_ + 1 x_("ERC_ESB_35365_35445",_"ESB_ECN_35745_35815")_ + 1 x_("ERC_ESB_35365_35445",_"ESB_BAL_36385_36475")_ + 1 x_("ERC_ESB_35365_35445",_"ESB_AJI_36370_36465")_ + 1 x_("ERC_ESB_35365_35445",_"ESB_ECN_36660_36730")_ + 1 x_("ERC_ESB_35365_35445",_"ESB_SAW_36720_36780")_ + 1 x_("ERC_ESB_35365_35445",_"ESB_SAW_36360_36420")_ + 1 x_("ERC_ESB_35365_35445",_"ESB_YEI_35755_35815")_ + 1 x_("ERC_ESB_35365_35445",_"ESB_MLX_35740_35815")_ + 1 x_("ERC_ESB_35365_35445",_"ESB_VAN_36445_36540")_ + 1 x_("ERC_ESB_35365_35445",_"ESB_ERC_36690_36770")_ + 1 x_("ERC_ESB_35365_35445",_"ESB_GNY_35500_35575")_ + 1 x_("ERC_ESB_35365_35445",_"ESB_SAW_36600_36660")_ = 1
mp_c1_ESB_ADB_35370_35450_: 1 x_("ESB_ADB_35370_35450",_"ADB_SAW_35585_35645")_ + 1 x_("ESB_ADB_35370_35450",_"ADB_ESB_35485_35560")_ + 1 x_("ESB_ADB_35370_35450",_"ADB_SAW_36335_36395")_ = 1
mp_c1_AYT_SAW_35370_35435_: 1 x_("AYT_SAW_35370_35435",_"SAW_ESB_36480_36540")_ + 1 x_("AYT_SAW_35370_35435",_"SAW_ADB_35490_35550")_ + 1 x_("AYT_SAW_35370_35435",_"SAW_ESB_36840_36900")_ + 1 x_("AYT_SAW_35370_35435",_"SAW_ADB_36240_36300")_ + 1 x_("AYT_SAW_35370_35435",_"SAW_KYA_35550_35620")_ + 1 x_("AYT_SAW_35370_35435",_"SAW_VAS_36690_36770")_ + 1 x_("AYT_SAW_35370_35435",_"SAW_ESB_36300_36360")_ + 1 x_("AYT_SAW_35370_35435",_"SAW_TZX_36465_36565")_ + 1 x_("AYT_SAW_35370_35435",_"SAW_ASR_35535_35620")_ + 1 x_("AYT_SAW_35370_35435",_"SAW_AYT_36705_36770")_ = 1
mp_c1_SAW_ESB_35400_35460_: 1 x_("SAW_ESB_35400_35460",_"ESB_TZX_36360_36440")_ + 1 x_("SAW_ESB_35400_35460",_"ESB_ADA_35520_35580")_ + 1 x_("SAW_ESB_35400_35460",_"ESB_ADB_36810_36890")_ + 1 x_("SAW_ESB_35400_35460",_"ESB_SZF_35540_35600")_ + 1 x_("SAW_ESB_35400_35460",_"ESB_HTY_35750_35830")_ + 1 x_("SAW_ESB_35400_35460",_"ESB_MQM_36650_36745")_ + 1 x_("SAW_ESB_35400_35460",_"ESB_ECN_35745_35815")_ + 1 x_("SAW_ESB_35400_35460",_"ESB_BAL_36385_36475")_ + 1 x_("SAW_ESB_35400_35460",_"ESB_AJI_36370_36465")_ + 1 x_("SAW_ESB_35400_35460",_"ESB_ECN_36660_36730")_ + 1 x_("SAW_ESB_35400_35460",_"ESB_SAW_36720_36780")_ + 1 x_("SAW_ESB_35400_35460",_"ESB_SAW_36360_36420")_ + 1 x_("SAW_ESB_35400_35460",_"ESB_YEI_35755_35815")_ + 1 x_("SAW_ESB_35400_35460",_"ESB_MLX_35740_35815")_ + 1 x_("SAW_ESB_35400_35460",_"ESB_VAN_36445_36540")_ + 1 x_("SAW_ESB_35400_35460",_"ESB_ERC_36690_36770")_ + 1 x_("SAW_ESB_35400_35460",_"ESB_GNY_35500_35575")_ + 1 x_("SAW_ESB_35400_35460",_"ESB_SAW_36600_36660")_ = 1
mp_c1_ECN_HTY_35400_35465_: 1 x_("ECN_HTY_35400_35465",_"HTY_ECN_35505_35570")_ + 1 x_("ECN_HTY_35400_35465",_"HTY_ESB_36240_36315")_ = 1
mp_c1_ADB_ESB_35485_35560_: 1 x_("ADB_ESB_35485_35560",_"ESB_SZF_36980_37040")_ + 1 x_("ADB_ESB_35485_35560",_"ESB_TZX_36360_36440")_ + 1 x_("ADB_ESB_35485_35560",_"ESB_ADB_36810_36890")_ + 1 x_("ADB_ESB_35485_35560",_"ESB_HTY_35750_35830")_ + 1 x_("ADB_ESB_35485_35560",_"ESB_MQM_36650_36745")_ + 1 x_("ADB_ESB_35485_35560",_"ESB_ECN_35745_35815")_ + 1 x_("ADB_ESB_35485_35560",_"ESB_BAL_36385_36475")_ + 1 x_("ADB_ESB_35485_35560",_"ESB_GNY_36940_37015")_ + 1 x_("ADB_ESB_35485_35560",_"ESB_ADA_36960_37020")_ + 1 x_("ADB_ESB_35485_35560",_"ESB_AJI_36370_36465")_ + 1 x_("ADB_ESB_35485_35560",_"ESB_ECN_36660_36730")_ + 1 x_("ADB_ESB_35485_35560",_"ESB_SAW_36720_36780")_ + 1 x_("ADB_ESB_35485_35560",_"ESB_SAW_36360_36420")_ + 1 x_("ADB_ESB_35485_35560",_"ESB_YEI_35755_35815")_ + 1 x_("ADB_ESB_35485_35560",_"ESB_MLX_35740_35815")_ + 1 x_("ADB_ESB_35485_35560",_"ESB_VAN_36445_36540")_ + 1 x_("ADB_ESB_35485_35560",_"ESB_ERC_36690_36770")_ + 1 x_("ADB_ESB_35485_35560",_"ESB_SAW_36600_36660")_ = 1
mp_c1_SAW_ADB_35490_35550_: 1 x_("SAW_ADB_35490_35550",_"ADB_SAW_35585_35645")_ + 1 x_("SAW_ADB_35490_35550",_"ADB_ESB_36925_37000")_ + 1 x_("SAW_ADB_35490_35550",_"ADB_SAW_36335_36395")_ = 1
mp_c1_ESB_GNY_35500_35575_: 1 x_("ESB_GNY_35500_35575",_"GNY_ESB_35610_35690")_ = 1
mp_c1_HTY_ECN_35505_35570_: 1 x_("HTY_ECN_35505_35570",_"ECN_ESB_35615_35685")_ + 1 x_("HTY_ECN_35505_35570",_"ECN_HTY_36840_36905")_ + 1 x_("HTY_ECN_35505_35570",_"ECN_ESB_36240_36310")_ = 1
mp_c1_ESB_ADA_35520_35580_: 1 x_("ESB_ADA_35520_35580",_"ADA_ESB_35620_35685")_ = 1
mp_c1_SAW_ASR_35535_35620_: 1 x_("SAW_ASR_35535_35620",_"ASR_SAW_35655_35745")_ = 1
mp_c1_ESB_SZF_35540_35600_: 1 x_("ESB_SZF_35540_35600",_"SZF_ESB_35635_35695")_ = 1
mp_c1_SAW_KYA_35550_35620_: 1 x_("SAW_KYA_35550_35620",_"KYA_SAW_35655_35725")_ = 1
mp_c1_ADB_SAW_35585_35645_: 1 x_("ADB_SAW_35585_35645",_"SAW_ESB_36480_36540")_ + 1 x_("ADB_SAW_35585_35645",_"SAW_ESB_36840_36900")_ + 1 x_("ADB_SAW_35585_35645",_"SAW_ADB_36240_36300")_ + 1 x_("ADB_SAW_35585_35645",_"SAW_KYA_36990_37060")_ + 1 x_("ADB_SAW_35585_35645",_"SAW_ASR_36975_37060")_ + 1 x_("ADB_SAW_35585_35645",_"SAW_VAS_36690_36770")_ + 1 x_("ADB_SAW_35585_35645",_"SAW_ESB_36300_36360")_ + 1 x_("ADB_SAW_35585_35645",_"SAW_TZX_36465_36565")_ + 1 x_("ADB_SAW_35585_35645",_"SAW_AYT_36705_36770")_ + 1 x_("ADB_SAW_35585_35645",_"SAW_ADB_36930_36990")_ = 1
mp_c1_GNY_ESB_35610_35690_: 1 x_("GNY_ESB_35610_35690",_"ESB_SZF_36980_37040")_ + 1 x_("GNY_ESB_35610_35690",_"ESB_TZX_36360_36440")_ + 1 x_("GNY_ESB_35610_35690",_"ESB_ADB_36810_36890")_ + 1 x_("GNY_ESB_35610_35690",_"ESB_HTY_35750_35830")_ + 1 x_("GNY_ESB_35610_35690",_"ESB_MQM_36650_36745")_ + 1 x_("GNY_ESB_35610_35690",_"ESB_ECN_35745_35815")_ + 1 x_("GNY_ESB_35610_35690",_"ESB_BAL_36385_36475")_ + 1 x_("GNY_ESB_35610_35690",_"ESB_GNY_36940_37015")_ + 1 x_("GNY_ESB_35610_35690",_"ESB_ADA_36960_37020")_ + 1 x_("GNY_ESB_35610_35690",_"ESB_AJI_36370_36465")_ + 1 x_("GNY_ESB_35610_35690",_"ESB_ECN_36660_36730")_ + 1 x_("GNY_ESB_35610_35690",_"ESB_SAW_36720_36780")_ + 1 x_("GNY_ESB_35610_35690",_"ESB_SAW_36360_36420")_ + 1 x_("GNY_ESB_35610_35690",_"ESB_YEI_35755_35815")_ + 1 x_("GNY_ESB_35610_35690",_"ESB_MLX_35740_35815")_ + 1 x_("GNY_ESB_35610_35690",_"ESB_VAN_36445_36540")_ + 1 x_("GNY_ESB_35610_35690",_"ESB_ERC_36690_36770")_ + 1 x_("GNY_ESB_35610_35690",_"ESB_SAW_36600_36660")_ = 1
mp_c1_ECN_ESB_35615_35685_: 1 x_("ECN_ESB_35615_35685",_"ESB_SZF_36980_37040")_ + 1 x_("ECN_ESB_35615_35685",_"ESB_TZX_36360_36440")_ + 1 x_("ECN_ESB_35615_35685",_"ESB_ADB_36810_36890")_ + 1 x_("ECN_ESB_35615_35685",_"ESB_HTY_35750_35830")_ + 1 x_("ECN_ESB_35615_35685",_"ESB_MQM_36650_36745")_ + 1 x_("ECN_ESB_35615_35685",_"ESB_ECN_35745_35815")_ + 1 x_("ECN_ESB_35615_35685",_"ESB_BAL_36385_36475")_ + 1 x_("ECN_ESB_35615_35685",_"ESB_GNY_36940_37015")_ + 1 x_("ECN_ESB_35615_35685",_"ESB_ADA_36960_37020")_ + 1 x_("ECN_ESB_35615_35685",_"ESB_AJI_36370_36465")_ + 1 x_("ECN_ESB_35615_35685",_"ESB_ECN_36660_36730")_ + 1 x_("ECN_ESB_35615_35685",_"ESB_SAW_36720_36780")_ + 1 x_("ECN_ESB_35615_35685",_"ESB_SAW_36360_36420")_ + 1 x_("ECN_ESB_35615_35685",_"ESB_YEI_35755_35815")_ + 1 x_("ECN_ESB_35615_35685",_"ESB_MLX_35740_35815")_ + 1 x_("ECN_ESB_35615_35685",_"ESB_VAN_36445_36540")_ + 1 x_("ECN_ESB_35615_35685",_"ESB_ERC_36690_36770")_ + 1 x_("ECN_ESB_35615_35685",_"ESB_SAW_36600_36660")_ = 1
mp_c1_ADA_ESB_35620_35685_: 1 x_("ADA_ESB_35620_35685",_"ESB_SZF_36980_37040")_ + 1 x_("ADA_ESB_35620_35685",_"ESB_TZX_36360_36440")_ + 1 x_("ADA_ESB_35620_35685",_"ESB_ADB_36810_36890")_ + 1 x_("ADA_ESB_35620_35685",_"ESB_HTY_35750_35830")_ + 1 x_("ADA_ESB_35620_35685",_"ESB_MQM_36650_36745")_ + 1 x_("ADA_ESB_35620_35685",_"ESB_ECN_35745_35815")_ + 1 x_("ADA_ESB_35620_35685",_"ESB_BAL_36385_36475")_ + 1 x_("ADA_ESB_35620_35685",_"ESB_GNY_36940_37015")_ + 1 x_("ADA_ESB_35620_35685",_"ESB_ADA_36960_37020")_ + 1 x_("ADA_ESB_35620_35685",_"ESB_AJI_36370_36465")_ + 1 x_("ADA_ESB_35620_35685",_"ESB_ECN_36660_36730")_ + 1 x_("ADA_ESB_35620_35685",_"ESB_SAW_36720_36780")_ + 1 x_("ADA_ESB_35620_35685",_"ESB_SAW_36360_36420")_ + 1 x_("ADA_ESB_35620_35685",_"ESB_YEI_35755_35815")_ + 1 x_("ADA_ESB_35620_35685",_"ESB_MLX_35740_35815")_ + 1 x_("ADA_ESB_35620_35685",_"ESB_VAN_36445_36540")_ + 1 x_("ADA_ESB_35620_35685",_"ESB_ERC_36690_36770")_ + 1 x_("ADA_ESB_35620_35685",_"ESB_SAW_36600_36660")_ = 1
mp_c1_SZF_ESB_35635_35695_: 1 x_("SZF_ESB_35635_35695",_"ESB_SZF_36980_37040")_ + 1 x_("SZF_ESB_35635_35695",_"ESB_TZX_36360_36440")_ + 1 x_("SZF_ESB_35635_35695",_"ESB_ADB_36810_36890")_ + 1 x_("SZF_ESB_35635_35695",_"ESB_HTY_35750_35830")_ + 1 x_("SZF_ESB_35635_35695",_"ESB_MQM_36650_36745")_ + 1 x_("SZF_ESB_35635_35695",_"ESB_ECN_35745_35815")_ + 1 x_("SZF_ESB_35635_35695",_"ESB_BAL_36385_36475")_ + 1 x_("SZF_ESB_35635_35695",_"ESB_GNY_36940_37015")_ + 1 x_("SZF_ESB_35635_35695",_"ESB_ADA_36960_37020")_ + 1 x_("SZF_ESB_35635_35695",_"ESB_AJI_36370_36465")_ + 1 x_("SZF_ESB_35635_35695",_"ESB_ECN_36660_36730")_ + 1 x_("SZF_ESB_35635_35695",_"ESB_SAW_36720_36780")_ + 1 x_("SZF_ESB_35635_35695",_"ESB_SAW_36360_36420")_ + 1 x_("SZF_ESB_35635_35695",_"ESB_YEI_35755_35815")_ + 1 x_("SZF_ESB_35635_35695",_"ESB_MLX_35740_35815")_ + 1 x_("SZF_ESB_35635_35695",_"ESB_VAN_36445_36540")_ + 1 x_("SZF_ESB_35635_35695",_"ESB_ERC_36690_36770")_ + 1 x_("SZF_ESB_35635_35695",_"ESB_SAW_36600_36660")_ = 1
mp_c1_ASR_SAW_35655_35745_: 1 x_("ASR_SAW_35655_35745",_"SAW_ESB_36480_36540")_ + 1 x_("ASR_SAW_35655_35745",_"SAW_ESB_36840_36900")_ + 1 x_("ASR_SAW_35655_35745",_"SAW_ADB_36240_36300")_ + 1 x_("ASR_SAW_35655_35745",_"SAW_KYA_36990_37060")_ + 1 x_("ASR_SAW_35655_35745",_"SAW_ASR_36975_37060")_ + 1 x_("ASR_SAW_35655_35745",_"SAW_VAS_36690_36770")_ + 1 x_("ASR_SAW_35655_35745",_"SAW_ESB_36300_36360")_ + 1 x_("ASR_SAW_35655_35745",_"SAW_TZX_36465_36565")_ + 1 x_("ASR_SAW_35655_35745",_"SAW_AYT_36705_36770")_ + 1 x_("ASR_SAW_35655_35745",_"SAW_ADB_36930_36990")_ = 1
mp_c1_KYA_SAW_35655_35725_: 1 x_("KYA_SAW_35655_35725",_"SAW_ESB_36480_36540")_ + 1 x_("KYA_SAW_35655_35725",_"SAW_ESB_36840_36900")_ + 1 x_("KYA_SAW_35655_35725",_"SAW_ADB_36240_36300")_ + 1 x_("KYA_SAW_35655_35725",_"SAW_KYA_36990_37060")_ + 1 x_("KYA_SAW_35655_35725",_"SAW_ASR_36975_37060")_ + 1 x_("KYA_SAW_35655_35725",_"SAW_VAS_36690_36770")_ + 1 x_("KYA_SAW_35655_35725",_"SAW_ESB_36300_36360")_ + 1 x_("KYA_SAW_35655_35725",_"SAW_TZX_36465_36565")_ + 1 x_("KYA_SAW_35655_35725",_"SAW_AYT_36705_36770")_ + 1 x_("KYA_SAW_35655_35725",_"SAW_ADB_36930_36990")_ = 1
mp_c1_ESB_MLX_35740_35815_: 1 x_("ESB_MLX_35740_35815",_"MLX_ESB_36240_36315")_ = 1
mp_c1_ESB_ECN_35745_35815_: 1 x_("ESB_ECN_35745_35815",_"ECN_ESB_37055_37125")_ + 1 x_("ESB_ECN_35745_35815",_"ECN_HTY_36840_36905")_ + 1 x_("ESB_ECN_35745_35815",_"ECN_ESB_36240_36310")_ = 1
mp_c1_ESB_HTY_35750_35830_: 1 x_("ESB_HTY_35750_35830",_"HTY_ESB_36240_36315")_ + 1 x_("ESB_HTY_35750_35830",_"HTY_ECN_36945_37010")_ = 1
mp_c1_ESB_YEI_35755_35815_: 1 x_("ESB_YEI_35755_35815",_"YEI_ESB_36240_36300")_ = 1
mp_c1_SAW_ADB_36240_36300_: 1 x_("SAW_ADB_36240_36300",_"ADB_ESB_36925_37000")_ + 1 x_("SAW_ADB_36240_36300",_"ADB_SAW_37025_37085")_ + 1 x_("SAW_ADB_36240_36300",_"ADB_SAW_36335_36395")_ = 1
mp_c1_ECN_ESB_36240_36310_: 1 x_("ECN_ESB_36240_36310",_"ESB_SZF_36980_37040")_ + 1 x_("ECN_ESB_36240_36310",_"ESB_TZX_36360_36440")_ + 1 x_("ECN_ESB_36240_36310",_"ESB_ADB_36810_36890")_ + 1 x_("ECN_ESB_36240_36310",_"ESB_MQM_36650_36745")_ + 1 x_("ECN_ESB_36240_36310",_"ESB_BAL_36385_36475")_ + 1 x_("ECN_ESB_36240_36310",_"ESB_GNY_36940_37015")_ + 1 x_("ECN_ESB_36240_36310",_"ESB_ECN_37185_37255")_ + 1 x_("ECN_ESB_36240_36310",_"ESB_YEI_37195_37255")_ + 1 x_("ECN_ESB_36240_36310",_"ESB_ADA_36960_37020")_ + 1 x_("ECN_ESB_36240_36310",_"ESB_HTY_37190_37270")_ + 1 x_("ECN_ESB_36240_36310",_"ESB_AJI_36370_36465")_ + 1 x_("ECN_ESB_36240_36310",_"ESB_ECN_36660_36730")_ + 1 x_("ECN_ESB_36240_36310",_"ESB_SAW_36720_36780")_ + 1 x_("ECN_ESB_36240_36310",_"ESB_SAW_36360_36420")_ + 1 x_("ECN_ESB_36240_36310",_"ESB_MLX_37180_37255")_ + 1 x_("ECN_ESB_36240_36310",_"ESB_VAN_36445_36540")_ + 1 x_("ECN_ESB_36240_36310",_"ESB_ERC_36690_36770")_ + 1 x_("ECN_ESB_36240_36310",_"ESB_SAW_36600_36660")_ = 1
mp_c1_YEI_ESB_36240_36300_: 1 x_("YEI_ESB_36240_36300",_"ESB_SZF_36980_37040")_ + 1 x_("YEI_ESB_36240_36300",_"ESB_TZX_36360_36440")_ + 1 x_("YEI_ESB_36240_36300",_"ESB_ADB_36810_36890")_ + 1 x_("YEI_ESB_36240_36300",_"ESB_MQM_36650_36745")_ + 1 x_("YEI_ESB_36240_36300",_"ESB_BAL_36385_36475")_ + 1 x_("YEI_ESB_36240_36300",_"ESB_GNY_36940_37015")_ + 1 x_("YEI_ESB_36240_36300",_"ESB_ECN_37185_37255")_ + 1 x_("YEI_ESB_36240_36300",_"ESB_YEI_37195_37255")_ + 1 x_("YEI_ESB_36240_36300",_"ESB_ADA_36960_37020")_ + 1 x_("YEI_ESB_36240_36300",_"ESB_HTY_37190_37270")_ + 1 x_("YEI_ESB_36240_36300",_"ESB_AJI_36370_36465")_ + 1 x_("YEI_ESB_36240_36300",_"ESB_ECN_36660_36730")_ + 1 x_("YEI_ESB_36240_36300",_"ESB_SAW_36720_36780")_ + 1 x_("YEI_ESB_36240_36300",_"ESB_SAW_36360_36420")_ + 1 x_("YEI_ESB_36240_36300",_"ESB_MLX_37180_37255")_ + 1 x_("YEI_ESB_36240_36300",_"ESB_VAN_36445_36540")_ + 1 x_("YEI_ESB_36240_36300",_"ESB_ERC_36690_36770")_ + 1 x_("YEI_ESB_36240_36300",_"ESB_SAW_36600_36660")_ = 1
mp_c1_MLX_ESB_36240_36315_: 1 x_("MLX_ESB_36240_36315",_"ESB_SZF_36980_37040")_ + 1 x_("MLX_ESB_36240_36315",_"ESB_TZX_36360_36440")_ + 1 x_("MLX_ESB_36240_36315",_"ESB_ADB_36810_36890")_ + 1 x_("MLX_ESB_36240_36315",_"ESB_MQM_36650_36745")_ + 1 x_("MLX_ESB_36240_36315",_"ESB_BAL_36385_36475")_ + 1 x_("MLX_ESB_36240_36315",_"ESB_GNY_36940_37015")_ + 1 x_("MLX_ESB_36240_36315",_"ESB_ECN_37185_37255")_ + 1 x_("MLX_ESB_36240_36315",_"ESB_YEI_37195_37255")_ + 1 x_("MLX_ESB_36240_36315",_"ESB_ADA_36960_37020")_ + 1 x_("MLX_ESB_36240_36315",_"ESB_HTY_37190_37270")_ + 1 x_("MLX_ESB_36240_36315",_"ESB_AJI_36370_36465")_ + 1 x_("MLX_ESB_36240_36315",_"ESB_ECN_36660_36730")_ + 1 x_("MLX_ESB_36240_36315",_"ESB_SAW_36720_36780")_ + 1 x_("MLX_ESB_36240_36315",_"ESB_SAW_36360_36420")_ + 1 x_("MLX_ESB_36240_36315",_"ESB_MLX_37180_37255")_ + 1 x_("MLX_ESB_36240_36315",_"ESB_VAN_36445_36540")_ + 1 x_("MLX_ESB_36240_36315",_"ESB_ERC_36690_36770")_ + 1 x_("MLX_ESB_36240_36315",_"ESB_SAW_36600_36660")_ = 1
mp_c1_HTY_ESB_36240_36315_: 1 x_("HTY_ESB_36240_36315",_"ESB_SZF_36980_37040")_ + 1 x_("HTY_ESB_36240_36315",_"ESB_TZX_36360_36440")_ + 1 x_("HTY_ESB_36240_36315",_"ESB_ADB_36810_36890")_ + 1 x_("HTY_ESB_36240_36315",_"ESB_MQM_36650_36745")_ + 1 x_("HTY_ESB_36240_36315",_"ESB_BAL_36385_36475")_ + 1 x_("HTY_ESB_36240_36315",_"ESB_GNY_36940_37015")_ + 1 x_("HTY_ESB_36240_36315",_"ESB_ECN_37185_37255")_ + 1 x_("HTY_ESB_36240_36315",_"ESB_YEI_37195_37255")_ + 1 x_("HTY_ESB_36240_36315",_"ESB_ADA_36960_37020")_ + 1 x_("HTY_ESB_36240_36315",_"ESB_HTY_37190_37270")_ + 1 x_("HTY_ESB_36240_36315",_"ESB_AJI_36370_36465")_ + 1 x_("HTY_ESB_36240_36315",_"ESB_ECN_36660_36730")_ + 1 x_("HTY_ESB_36240_36315",_"ESB_SAW_36720_36780")_ + 1 x_("HTY_ESB_36240_36315",_"ESB_SAW_36360_36420")_ + 1 x_("HTY_ESB_36240_36315",_"ESB_MLX_37180_37255")_ + 1 x_("HTY_ESB_36240_36315",_"ESB_VAN_36445_36540")_ + 1 x_("HTY_ESB_36240_36315",_"ESB_ERC_36690_36770")_ + 1 x_("HTY_ESB_36240_36315",_"ESB_SAW_36600_36660")_ = 1
mp_c1_SAW_ESB_36300_36360_: 1 x_("SAW_ESB_36300_36360",_"ESB_SZF_36980_37040")_ + 1 x_("SAW_ESB_36300_36360",_"ESB_ADB_36810_36890")_ + 1 x_("SAW_ESB_36300_36360",_"ESB_MQM_36650_36745")_ + 1 x_("SAW_ESB_36300_36360",_"ESB_SAW_37800_37860")_ + 1 x_("SAW_ESB_36300_36360",_"ESB_GNY_36940_37015")_ + 1 x_("SAW_ESB_36300_36360",_"ESB_ECN_37185_37255")_ + 1 x_("SAW_ESB_36300_36360",_"ESB_YEI_37195_37255")_ + 1 x_("SAW_ESB_36300_36360",_"ESB_ADA_36960_37020")_ + 1 x_("SAW_ESB_36300_36360",_"ESB_HTY_37190_37270")_ + 1 x_("SAW_ESB_36300_36360",_"ESB_ECN_36660_36730")_ + 1 x_("SAW_ESB_36300_36360",_"ESB_SAW_36720_36780")_ + 1 x_("SAW_ESB_36300_36360",_"ESB_MLX_37180_37255")_ + 1 x_("SAW_ESB_36300_36360",_"ESB_VAN_36445_36540")_ + 1 x_("SAW_ESB_36300_36360",_"ESB_TZX_37800_37880")_ + 1 x_("SAW_ESB_36300_36360",_"ESB_ERC_36690_36770")_ + 1 x_("SAW_ESB_36300_36360",_"ESB_SAW_36600_36660")_ = 1
mp_c1_ADB_SAW_36335_36395_: 1 x_("ADB_SAW_36335_36395",_"SAW_ESB_36480_36540")_ + 1 x_("ADB_SAW_36335_36395",_"SAW_ESB_36840_36900")_ + 1 x_("ADB_SAW_36335_36395",_"SAW_ESB_37740_37800")_ + 1 x_("ADB_SAW_36335_36395",_"SAW_KYA_36990_37060")_ + 1 x_("ADB_SAW_36335_36395",_"SAW_ASR_36975_37060")_ + 1 x_("ADB_SAW_36335_36395",_"SAW_VAS_36690_36770")_ + 1 x_("ADB_SAW_36335_36395",_"SAW_TZX_36465_36565")_ + 1 x_("ADB_SAW_36335_36395",_"SAW_ADB_37680_37740")_ + 1 x_("ADB_SAW_36335_36395",_"SAW_AYT_36705_36770")_ + 1 x_("ADB_SAW_36335_36395",_"SAW_ADB_36930_36990")_ = 1
mp_c1_ESB_SAW_36360_36420_: 1 x_("ESB_SAW_36360_36420",_"SAW_ESB_36480_36540")_ + 1 x_("ESB_SAW_36360_36420",_"SAW_ESB_36840_36900")_ + 1 x_("ESB_SAW_36360_36420",_"SAW_ESB_37740_37800")_ + 1 x_("ESB_SAW_36360_36420",_"SAW_KYA_36990_37060")_ + 1 x_("ESB_SAW_36360_36420",_"SAW_ASR_36975_37060")_ + 1 x_("ESB_SAW_36360_36420",_"SAW_VAS_36690_36770")_ + 1 x_("ESB_SAW_36360_36420",_"SAW_TZX_36465_36565")_ + 1 x_("ESB_SAW_36360_36420",_"SAW_ADB_37680_37740")_ + 1 x_("ESB_SAW_36360_36420",_"SAW_AYT_36705_36770")_ + 1 x_("ESB_SAW_36360_36420",_"SAW_ADB_36930_36990")_ = 1
mp_c1_ESB_TZX_36360_36440_: 1 x_("ESB_TZX_36360_36440",_"TZX_ESB_36475_36555")_ + 1 x_("ESB_TZX_36360_36440",_"TZX_SAW_36600_36705")_ = 1
mp_c1_ESB_AJI_36370_36465_: 1 x_("ESB_AJI_36370_36465",_"AJI_ESB_36500_36605")_ = 1
mp_c1_ESB_BAL_36385_36475_: 1 x_("ESB_BAL_36385_36475",_"BAL_ESB_36510_36605")_ = 1
mp_c1_ESB_VAN_36445_36540_: 1 x_("ESB_VAN_36445_36540",_"VAN_ESB_36575_36680")_ = 1
mp_c1_SAW_TZX_36465_36565_: 1 x_("SAW_TZX_36465_36565",_"TZX_SAW_36600_36705")_ + 1 x_("SAW_TZX_36465_36565",_"TZX_ESB_37915_37995")_ = 1
mp_c1_TZX_ESB_36475_36555_: 1 x_("TZX_ESB_36475_36555",_"ESB_SZF_36980_37040")_ + 1 x_("TZX_ESB_36475_36555",_"ESB_ADB_36810_36890")_ + 1 x_("TZX_ESB_36475_36555",_"ESB_MQM_36650_36745")_ + 1 x_("TZX_ESB_36475_36555",_"ESB_SAW_37800_37860")_ + 1 x_("TZX_ESB_36475_36555",_"ESB_GNY_36940_37015")_ + 1 x_("TZX_ESB_36475_36555",_"ESB_ECN_37185_37255")_ + 1 x_("TZX_ESB_36475_36555",_"ESB_YEI_37195_37255")_ + 1 x_("TZX_ESB_36475_36555",_"ESB_ADA_36960_37020")_ + 1 x_("TZX_ESB_36475_36555",_"ESB_HTY_37190_37270")_ + 1 x_("TZX_ESB_36475_36555",_"ESB_ECN_36660_36730")_ + 1 x_("TZX_ESB_36475_36555",_"ESB_AJI_37810_37905")_ + 1 x_("TZX_ESB_36475_36555",_"ESB_SAW_36720_36780")_ + 1 x_("TZX_ESB_36475_36555",_"ESB_VAN_37885_37980")_ + 1 x_("TZX_ESB_36475_36555",_"ESB_AYT_37980_38045")_ + 1 x_("TZX_ESB_36475_36555",_"ESB_MLX_37180_37255")_ + 1 x_("TZX_ESB_36475_36555",_"ESB_BAL_37825_37915")_ + 1 x_("TZX_ESB_36475_36555",_"ESB_TZX_37800_37880")_ + 1 x_("TZX_ESB_36475_36555",_"ESB_ERC_36690_36770")_ + 1 x_("TZX_ESB_36475_36555",_"ESB_SAW_36600_36660")_ = 1
mp_c1_SAW_ESB_36480_36540_: 1 x_("SAW_ESB_36480_36540",_"ESB_SZF_36980_37040")_ + 1 x_("SAW_ESB_36480_36540",_"ESB_ADB_36810_36890")_ + 1 x_("SAW_ESB_36480_36540",_"ESB_MQM_36650_36745")_ + 1 x_("SAW_ESB_36480_36540",_"ESB_SAW_37800_37860")_ + 1 x_("SAW_ESB_36480_36540",_"ESB_GNY_36940_37015")_ + 1 x_("SAW_ESB_36480_36540",_"ESB_ECN_37185_37255")_ + 1 x_("SAW_ESB_36480_36540",_"ESB_YEI_37195_37255")_ + 1 x_("SAW_ESB_36480_36540",_"ESB_ADA_36960_37020")_ + 1 x_("SAW_ESB_36480_36540",_"ESB_HTY_37190_37270")_ + 1 x_("SAW_ESB_36480_36540",_"ESB_ECN_36660_36730")_ + 1 x_("SAW_ESB_36480_36540",_"ESB_AJI_37810_37905")_ + 1 x_("SAW_ESB_36480_36540",_"ESB_SAW_36720_36780")_ + 1 x_("SAW_ESB_36480_36540",_"ESB_VAN_37885_37980")_ + 1 x_("SAW_ESB_36480_36540",_"ESB_AYT_37980_38045")_ + 1 x_("SAW_ESB_36480_36540",_"ESB_MLX_37180_37255")_ + 1 x_("SAW_ESB_36480_36540",_"ESB_BAL_37825_37915")_ + 1 x_("SAW_ESB_36480_36540",_"ESB_TZX_37800_37880")_ + 1 x_("SAW_ESB_36480_36540",_"ESB_ERC_36690_36770")_ + 1 x_("SAW_ESB_36480_36540",_"ESB_SAW_36600_36660")_ = 1
mp_c1_AJI_ESB_36500_36605_: 1 x_("AJI_ESB_36500_36605",_"ESB_SZF_36980_37040")_ + 1 x_("AJI_ESB_36500_36605",_"ESB_ADB_36810_36890")_ + 1 x_("AJI_ESB_36500_36605",_"ESB_MQM_36650_36745")_ + 1 x_("AJI_ESB_36500_36605",_"ESB_SAW_37800_37860")_ + 1 x_("AJI_ESB_36500_36605",_"ESB_GNY_36940_37015")_ + 1 x_("AJI_ESB_36500_36605",_"ESB_SAW_38040_38100")_ + 1 x_("AJI_ESB_36500_36605",_"ESB_ECN_37185_37255")_ + 1 x_("AJI_ESB_36500_36605",_"ESB_YEI_37195_37255")_ + 1 x_("AJI_ESB_36500_36605",_"ESB_ADA_36960_37020")_ + 1 x_("AJI_ESB_36500_36605",_"ESB_HTY_37190_37270")_ + 1 x_("AJI_ESB_36500_36605",_"ESB_ECN_36660_36730")_ + 1 x_("AJI_ESB_36500_36605",_"ESB_AJI_37810_37905")_ + 1 x_("AJI_ESB_36500_36605",_"ESB_SAW_36720_36780")_ + 1 x_("AJI_ESB_36500_36605",_"ESB_VAN_37885_37980")_ + 1 x_("AJI_ESB_36500_36605",_"ESB_AYT_37980_38045")_ + 1 x_("AJI_ESB_36500_36605",_"ESB_MLX_37180_37255")_ + 1 x_("AJI_ESB_36500_36605",_"ESB_BAL_37825_37915")_ + 1 x_("AJI_ESB_36500_36605",_"ESB_TZX_37800_37880")_ + 1 x_("AJI_ESB_36500_36605",_"ESB_ERC_36690_36770")_ = 1
mp_c1_BAL_ESB_36510_36605_: 1 x_("BAL_ESB_36510_36605",_"ESB_SZF_36980_37040")_ + 1 x_("BAL_ESB_36510_36605",_"ESB_ADB_36810_36890")_ + 1 x_("BAL_ESB_36510_36605",_"ESB_MQM_36650_36745")_ + 1 x_("BAL_ESB_36510_36605",_"ESB_SAW_37800_37860")_ + 1 x_("BAL_ESB_36510_36605",_"ESB_GNY_36940_37015")_ + 1 x_("BAL_ESB_36510_36605",_"ESB_SAW_38040_38100")_ + 1 x_("BAL_ESB_36510_36605",_"ESB_ECN_37185_37255")_ + 1 x_("BAL_ESB_36510_36605",_"ESB_YEI_37195_37255")_ + 1 x_("BAL_ESB_36510_36605",_"ESB_ADA_36960_37020")_ + 1 x_("BAL_ESB_36510_36605",_"ESB_HTY_37190_37270")_ + 1 x_("BAL_ESB_36510_36605",_"ESB_ECN_36660_36730")_ + 1 x_("BAL_ESB_36510_36605",_"ESB_AJI_37810_37905")_ + 1 x_("BAL_ESB_36510_36605",_"ESB_SAW_36720_36780")_ + 1 x_("BAL_ESB_36510_36605",_"ESB_VAN_37885_37980")_ + 1 x_("BAL_ESB_36510_36605",_"ESB_AYT_37980_38045")_ + 1 x_("BAL_ESB_36510_36605",_"ESB_MLX_37180_37255")_ + 1 x_("BAL_ESB_36510_36605",_"ESB_BAL_37825_37915")_ + 1 x_("BAL_ESB_36510_36605",_"ESB_TZX_37800_37880")_ + 1 x_("BAL_ESB_36510_36605",_"ESB_ERC_36690_36770")_ = 1
mp_c1_VAN_ESB_36575_36680_: 1 x_("VAN_ESB_36575_36680",_"ESB_SZF_36980_37040")_ + 1 x_("VAN_ESB_36575_36680",_"ESB_ADB_36810_36890")_ + 1 x_("VAN_ESB_36575_36680",_"ESB_SAW_37800_37860")_ + 1 x_("VAN_ESB_36575_36680",_"ESB_ECN_38100_38170")_ + 1 x_("VAN_ESB_36575_36680",_"ESB_GNY_36940_37015")_ + 1 x_("VAN_ESB_36575_36680",_"ESB_SAW_38040_38100")_ + 1 x_("VAN_ESB_36575_36680",_"ESB_ECN_37185_37255")_ + 1 x_("VAN_ESB_36575_36680",_"ESB_YEI_37195_37255")_ + 1 x_("VAN_ESB_36575_36680",_"ESB_ADA_36960_37020")_ + 1 x_("VAN_ESB_36575_36680",_"ESB_HTY_37190_37270")_ + 1 x_("VAN_ESB_36575_36680",_"ESB_AJI_37810_37905")_ + 1 x_("VAN_ESB_36575_36680",_"ESB_SAW_36720_36780")_ + 1 x_("VAN_ESB_36575_36680",_"ESB_VAN_37885_37980")_ + 1 x_("VAN_ESB_36575_36680",_"ESB_MQM_38090_38185")_ + 1 x_("VAN_ESB_36575_36680",_"ESB_AYT_37980_38045")_ + 1 x_("VAN_ESB_36575_36680",_"ESB_MLX_37180_37255")_ + 1 x_("VAN_ESB_36575_36680",_"ESB_BAL_37825_37915")_ + 1 x_("VAN_ESB_36575_36680",_"ESB_TZX_37800_37880")_ = 1
mp_c1_ESB_SAW_36600_36660_: 1 x_("ESB_SAW_36600_36660",_"SAW_ESB_36840_36900")_ + 1 x_("ESB_SAW_36600_36660",_"SAW_ESB_37740_37800")_ + 1 x_("ESB_SAW_36600_36660",_"SAW_KYA_36990_37060")_ + 1 x_("ESB_SAW_36600_36660",_"SAW_ASR_36975_37060")_ + 1 x_("ESB_SAW_36600_36660",_"SAW_ESB_37920_37980")_ + 1 x_("ESB_SAW_36600_36660",_"SAW_ADB_37680_37740")_ + 1 x_("ESB_SAW_36600_36660",_"SAW_AYT_36705_36770")_ + 1 x_("ESB_SAW_36600_36660",_"SAW_TZX_37905_38005")_ + 1 x_("ESB_SAW_36600_36660",_"SAW_ADB_36930_36990")_ = 1
mp_c1_TZX_SAW_36600_36705_: 1 x_("TZX_SAW_36600_36705",_"SAW_VAS_38130_38210")_ + 1 x_("TZX_SAW_36600_36705",_"SAW_AYT_38145_38210")_ + 1 x_("TZX_SAW_36600_36705",_"SAW_ESB_36840_36900")_ + 1 x_("TZX_SAW_36600_36705",_"SAW_ESB_37740_37800")_ + 1 x_("TZX_SAW_36600_36705",_"SAW_KYA_36990_37060")_ + 1 x_("TZX_SAW_36600_36705",_"SAW_ASR_36975_37060")_ + 1 x_("TZX_SAW_36600_36705",_"SAW_ESB_37920_37980")_ + 1 x_("TZX_SAW_36600_36705",_"SAW_ADB_37680_37740")_ + 1 x_("TZX_SAW_36600_36705",_"SAW_TZX_37905_38005")_ + 1 x_("TZX_SAW_36600_36705",_"SAW_ADB_36930_36990")_ = 1
mp_c1_ESB_MQM_36650_36745_: 1 x_("ESB_MQM_36650_36745",_"MQM_ESB_36780_36875")_ = 1
mp_c1_ESB_ECN_36660_36730_: 1 x_("ESB_ECN_36660_36730",_"ECN_ESB_37055_37125")_ + 1 x_("ESB_ECN_36660_36730",_"ECN_HTY_36840_36905")_ + 1 x_("ESB_ECN_36660_36730",_"ECN_ESB_37680_37750")_ = 1
mp_c1_ESB_ERC_36690_36770_: 1 x_("ESB_ERC_36690_36770",_"ERC_ESB_36805_36885")_ = 1
mp_c1_SAW_VAS_36690_36770_: 1 x_("SAW_VAS_36690_36770",_"VAS_SAW_36805_36885")_ = 1
mp_c1_SAW_AYT_36705_36770_: 1 x_("SAW_AYT_36705_36770",_"AYT_ESB_38080_38145")_ + 1 x_("SAW_AYT_36705_36770",_"AYT_SAW_36810_36875")_ = 1
mp_c1_ESB_SAW_36720_36780_: 1 x_("ESB_SAW_36720_36780",_"SAW_VAS_38130_38210")_ + 1 x_("ESB_SAW_36720_36780",_"SAW_AYT_38145_38210")_ + 1 x_("ESB_SAW_36720_36780",_"SAW_ESB_36840_36900")_ + 1 x_("ESB_SAW_36720_36780",_"SAW_ESB_37740_37800")_ + 1 x_("ESB_SAW_36720_36780",_"SAW_KYA_36990_37060")_ + 1 x_("ESB_SAW_36720_36780",_"SAW_ASR_36975_37060")_ + 1 x_("ESB_SAW_36720_36780",_"SAW_ESB_37920_37980")_ + 1 x_("ESB_SAW_36720_36780",_"SAW_ADB_37680_37740")_ + 1 x_("ESB_SAW_36720_36780",_"SAW_TZX_37905_38005")_ + 1 x_("ESB_SAW_36720_36780",_"SAW_ADB_36930_36990")_ = 1
mp_c1_MQM_ESB_36780_36875_: 1 x_("MQM_ESB_36780_36875",_"ESB_SZF_36980_37040")_ + 1 x_("MQM_ESB_36780_36875",_"ESB_ERC_38130_38210")_ + 1 x_("MQM_ESB_36780_36875",_"ESB_SAW_37800_37860")_ + 1 x_("MQM_ESB_36780_36875",_"ESB_ECN_38100_38170")_ + 1 x_("MQM_ESB_36780_36875",_"ESB_GNY_36940_37015")_ + 1 x_("MQM_ESB_36780_36875",_"ESB_SAW_38040_38100")_ + 1 x_("MQM_ESB_36780_36875",_"ESB_ECN_37185_37255")_ + 1 x_("MQM_ESB_36780_36875",_"ESB_YEI_37195_37255")_ + 1 x_("MQM_ESB_36780_36875",_"ESB_ADA_36960_37020")_ + 1 x_("MQM_ESB_36780_36875",_"ESB_HTY_37190_37270")_ + 1 x_("MQM_ESB_36780_36875",_"ESB_AJI_37810_37905")_ + 1 x_("MQM_ESB_36780_36875",_"ESB_SAW_38160_38220")_ + 1 x_("MQM_ESB_36780_36875",_"ESB_VAN_37885_37980")_ + 1 x_("MQM_ESB_36780_36875",_"ESB_MQM_38090_38185")_ + 1 x_("MQM_ESB_36780_36875",_"ESB_AYT_37980_38045")_ + 1 x_("MQM_ESB_36780_36875",_"ESB_MLX_37180_37255")_ + 1 x_("MQM_ESB_36780_36875",_"ESB_ADB_38250_38330")_ + 1 x_("MQM_ESB_36780_36875",_"ESB_BAL_37825_37915")_ + 1 x_("MQM_ESB_36780_36875",_"ESB_TZX_37800_37880")_ = 1
mp_c1_ERC_ESB_36805_36885_: 1 x_("ERC_ESB_36805_36885",_"ESB_SZF_36980_37040")_ + 1 x_("ERC_ESB_36805_36885",_"ESB_ERC_38130_38210")_ + 1 x_("ERC_ESB_36805_36885",_"ESB_SAW_37800_37860")_ + 1 x_("ERC_ESB_36805_36885",_"ESB_ECN_38100_38170")_ + 1 x_("ERC_ESB_36805_36885",_"ESB_GNY_36940_37015")_ + 1 x_("ERC_ESB_36805_36885",_"ESB_SAW_38040_38100")_ + 1 x_("ERC_ESB_36805_36885",_"ESB_ECN_37185_37255")_ + 1 x_("ERC_ESB_36805_36885",_"ESB_YEI_37195_37255")_ + 1 x_("ERC_ESB_36805_36885",_"ESB_ADA_36960_37020")_ + 1 x_("ERC_ESB_36805_36885",_"ESB_HTY_37190_37270")_ + 1 x_("ERC_ESB_36805_36885",_"ESB_AJI_37810_37905")_ + 1 x_("ERC_ESB_36805_36885",_"ESB_SAW_38160_38220")_ + 1 x_("ERC_ESB_36805_36885",_"ESB_VAN_37885_37980")_ + 1 x_("ERC_ESB_36805_36885",_"ESB_MQM_38090_38185")_ + 1 x_("ERC_ESB_36805_36885",_"ESB_AYT_37980_38045")_ + 1 x_("ERC_ESB_36805_36885",_"ESB_MLX_37180_37255")_ + 1 x_("ERC_ESB_36805_36885",_"ESB_ADB_38250_38330")_ + 1 x_("ERC_ESB_36805_36885",_"ESB_BAL_37825_37915")_ + 1 x_("ERC_ESB_36805_36885",_"ESB_TZX_37800_37880")_ = 1
mp_c1_VAS_SAW_36805_36885_: 1 x_("VAS_SAW_36805_36885",_"SAW_VAS_38130_38210")_ + 1 x_("VAS_SAW_36805_36885",_"SAW_AYT_38145_38210")_ + 1 x_("VAS_SAW_36805_36885",_"SAW_ESB_38280_38340")_ + 1 x_("VAS_SAW_36805_36885",_"SAW_ESB_37740_37800")_ + 1 x_("VAS_SAW_36805_36885",_"SAW_KYA_36990_37060")_ + 1 x_("VAS_SAW_36805_36885",_"SAW_ASR_36975_37060")_ + 1 x_("VAS_SAW_36805_36885",_"SAW_ESB_37920_37980")_ + 1 x_("VAS_SAW_36805_36885",_"SAW_ADB_37680_37740")_ + 1 x_("VAS_SAW_36805_36885",_"SAW_TZX_37905_38005")_ + 1 x_("VAS_SAW_36805_36885",_"SAW_ADB_36930_36990")_ = 1
mp_c1_ESB_ADB_36810_36890_: 1 x_("ESB_ADB_36810_36890",_"ADB_SAW_37775_37835")_ + 1 x_("ESB_ADB_36810_36890",_"ADB_ESB_36925_37000")_ + 1 x_("ESB_ADB_36810_36890",_"ADB_SAW_37025_37085")_ = 1
mp_c1_AYT_SAW_36810_36875_: 1 x_("AYT_SAW_36810_36875",_"SAW_VAS_38130_38210")_ + 1 x_("AYT_SAW_36810_36875",_"SAW_AYT_38145_38210")_ + 1 x_("AYT_SAW_36810_36875",_"SAW_ESB_38280_38340")_ + 1 x_("AYT_SAW_36810_36875",_"SAW_ESB_37740_37800")_ + 1 x_("AYT_SAW_36810_36875",_"SAW_KYA_36990_37060")_ + 1 x_("AYT_SAW_36810_36875",_"SAW_ASR_36975_37060")_ + 1 x_("AYT_SAW_36810_36875",_"SAW_ESB_37920_37980")_ + 1 x_("AYT_SAW_36810_36875",_"SAW_ADB_37680_37740")_ + 1 x_("AYT_SAW_36810_36875",_"SAW_TZX_37905_38005")_ + 1 x_("AYT_SAW_36810_36875",_"SAW_ADB_36930_36990")_ = 1
mp_c1_SAW_ESB_36840_36900_: 1 x_("SAW_ESB_36840_36900",_"ESB_SZF_36980_37040")_ + 1 x_("SAW_ESB_36840_36900",_"ESB_ERC_38130_38210")_ + 1 x_("SAW_ESB_36840_36900",_"ESB_SAW_37800_37860")_ + 1 x_("SAW_ESB_36840_36900",_"ESB_ECN_38100_38170")_ + 1 x_("SAW_ESB_36840_36900",_"ESB_GNY_36940_37015")_ + 1 x_("SAW_ESB_36840_36900",_"ESB_SAW_38040_38100")_ + 1 x_("SAW_ESB_36840_36900",_"ESB_ECN_37185_37255")_ + 1 x_("SAW_ESB_36840_36900",_"ESB_YEI_37195_37255")_ + 1 x_("SAW_ESB_36840_36900",_"ESB_ADA_36960_37020")_ + 1 x_("SAW_ESB_36840_36900",_"ESB_HTY_37190_37270")_ + 1 x_("SAW_ESB_36840_36900",_"ESB_AJI_37810_37905")_ + 1 x_("SAW_ESB_36840_36900",_"ESB_SAW_38160_38220")_ + 1 x_("SAW_ESB_36840_36900",_"ESB_VAN_37885_37980")_ + 1 x_("SAW_ESB_36840_36900",_"ESB_MQM_38090_38185")_ + 1 x_("SAW_ESB_36840_36900",_"ESB_AYT_37980_38045")_ + 1 x_("SAW_ESB_36840_36900",_"ESB_MLX_37180_37255")_ + 1 x_("SAW_ESB_36840_36900",_"ESB_ADB_38250_38330")_ + 1 x_("SAW_ESB_36840_36900",_"ESB_BAL_37825_37915")_ + 1 x_("SAW_ESB_36840_36900",_"ESB_TZX_37800_37880")_ = 1
mp_c1_ECN_HTY_36840_36905_: 1 x_("ECN_HTY_36840_36905",_"HTY_ECN_36945_37010")_ + 1 x_("ECN_HTY_36840_36905",_"HTY_ESB_37680_37755")_ = 1
mp_c1_ADB_ESB_36925_37000_: 1 x_("ADB_ESB_36925_37000",_"ESB_ERC_38130_38210")_ + 1 x_("ADB_ESB_36925_37000",_"ESB_SAW_37800_37860")_ + 1 x_("ADB_ESB_36925_37000",_"ESB_SZF_38420_38480")_ + 1 x_("ADB_ESB_36925_37000",_"ESB_ECN_38100_38170")_ + 1 x_("ADB_ESB_36925_37000",_"ESB_SAW_38040_38100")_ + 1 x_("ADB_ESB_36925_37000",_"ESB_ECN_37185_37255")_ + 1 x_("ADB_ESB_36925_37000",_"ESB_YEI_37195_37255")_ + 1 x_("ADB_ESB_36925_37000",_"ESB_HTY_37190_37270")_ + 1 x_("ADB_ESB_36925_37000",_"ESB_AJI_37810_37905")_ + 1 x_("ADB_ESB_36925_37000",_"ESB_SAW_38160_38220")_ + 1 x_("ADB_ESB_36925_37000",_"ESB_VAN_37885_37980")_ + 1 x_("ADB_ESB_36925_37000",_"ESB_MQM_38090_38185")_ + 1 x_("ADB_ESB_36925_37000",_"ESB_AYT_37980_38045")_ + 1 x_("ADB_ESB_36925_37000",_"ESB_GNY_38380_38455")_ + 1 x_("ADB_ESB_36925_37000",_"ESB_MLX_37180_37255")_ + 1 x_("ADB_ESB_36925_37000",_"ESB_ADB_38250_38330")_ + 1 x_("ADB_ESB_36925_37000",_"ESB_BAL_37825_37915")_ + 1 x_("ADB_ESB_36925_37000",_"ESB_ADA_38400_38460")_ + 1 x_("ADB_ESB_36925_37000",_"ESB_TZX_37800_37880")_ = 1
mp_c1_SAW_ADB_36930_36990_: 1 x_("SAW_ADB_36930_36990",_"ADB_ESB_38365_38440")_ + 1 x_("SAW_ADB_36930_36990",_"ADB_SAW_37775_37835")_ + 1 x_("SAW_ADB_36930_36990",_"ADB_SAW_37025_37085")_ = 1
mp_c1_ESB_GNY_36940_37015_: 1 x_("ESB_GNY_36940_37015",_"GNY_ESB_37050_37130")_ = 1
mp_c1_HTY_ECN_36945_37010_: 1 x_("HTY_ECN_36945_37010",_"ECN_HTY_38280_38345")_ + 1 x_("HTY_ECN_36945_37010",_"ECN_ESB_37055_37125")_ + 1 x_("HTY_ECN_36945_37010",_"ECN_ESB_37680_37750")_ = 1
mp_c1_ESB_ADA_36960_37020_: 1 x_("ESB_ADA_36960_37020",_"ADA_ESB_37060_37125")_ = 1
mp_c1_SAW_ASR_36975_37060_: 1 x_("SAW_ASR_36975_37060",_"ASR_SAW_37095_37185")_ = 1
mp_c1_ESB_SZF_36980_37040_: 1 x_("ESB_SZF_36980_37040",_"SZF_ESB_37075_37135")_ = 1
mp_c1_SAW_KYA_36990_37060_: 1 x_("SAW_KYA_36990_37060",_"KYA_SAW_37095_37165")_ = 1
mp_c1_ADB_SAW_37025_37085_: 1 x_("ADB_SAW_37025_37085",_"SAW_VAS_38130_38210")_ + 1 x_("ADB_SAW_37025_37085",_"SAW_AYT_38145_38210")_ + 1 x_("ADB_SAW_37025_37085",_"SAW_ESB_38280_38340")_ + 1 x_("ADB_SAW_37025_37085",_"SAW_ASR_38415_38500")_ + 1 x_("ADB_SAW_37025_37085",_"SAW_ESB_37740_37800")_ + 1 x_("ADB_SAW_37025_37085",_"SAW_ESB_37920_37980")_ + 1 x_("ADB_SAW_37025_37085",_"SAW_ADB_37680_37740")_ + 1 x_("ADB_SAW_37025_37085",_"SAW_ADB_38370_38430")_ + 1 x_("ADB_SAW_37025_37085",_"SAW_TZX_37905_38005")_ + 1 x_("ADB_SAW_37025_37085",_"SAW_KYA_38430_38500")_ = 1
mp_c1_GNY_ESB_37050_37130_: 1 x_("GNY_ESB_37050_37130",_"ESB_ERC_38130_38210")_ + 1 x_("GNY_ESB_37050_37130",_"ESB_SAW_37800_37860")_ + 1 x_("GNY_ESB_37050_37130",_"ESB_SZF_38420_38480")_ + 1 x_("GNY_ESB_37050_37130",_"ESB_ECN_38100_38170")_ + 1 x_("GNY_ESB_37050_37130",_"ESB_SAW_38040_38100")_ + 1 x_("GNY_ESB_37050_37130",_"ESB_ECN_37185_37255")_ + 1 x_("GNY_ESB_37050_37130",_"ESB_YEI_37195_37255")_ + 1 x_("GNY_ESB_37050_37130",_"ESB_HTY_37190_37270")_ + 1 x_("GNY_ESB_37050_37130",_"ESB_AJI_37810_37905")_ + 1 x_("GNY_ESB_37050_37130",_"ESB_SAW_38160_38220")_ + 1 x_("GNY_ESB_37050_37130",_"ESB_VAN_37885_37980")_ + 1 x_("GNY_ESB_37050_37130",_"ESB_MQM_38090_38185")_ + 1 x_("GNY_ESB_37050_37130",_"ESB_AYT_37980_38045")_ + 1 x_("GNY_ESB_37050_37130",_"ESB_GNY_38380_38455")_ + 1 x_("GNY_ESB_37050_37130",_"ESB_MLX_37180_37255")_ + 1 x_("GNY_ESB_37050_37130",_"ESB_ADB_38250_38330")_ + 1 x_("GNY_ESB_37050_37130",_"ESB_BAL_37825_37915")_ + 1 x_("GNY_ESB_37050_37130",_"ESB_ADA_38400_38460")_ + 1 x_("GNY_ESB_37050_37130",_"ESB_TZX_37800_37880")_ = 1
mp_c1_ECN_ESB_37055_37125_: 1 x_("ECN_ESB_37055_37125",_"ESB_ERC_38130_38210")_ + 1 x_("ECN_ESB_37055_37125",_"ESB_SAW_37800_37860")_ + 1 x_("ECN_ESB_37055_37125",_"ESB_SZF_38420_38480")_ + 1 x_("ECN_ESB_37055_37125",_"ESB_ECN_38100_38170")_ + 1 x_("ECN_ESB_37055_37125",_"ESB_SAW_38040_38100")_ + 1 x_("ECN_ESB_37055_37125",_"ESB_ECN_37185_37255")_ + 1 x_("ECN_ESB_37055_37125",_"ESB_YEI_37195_37255")_ + 1 x_("ECN_ESB_37055_37125",_"ESB_HTY_37190_37270")_ + 1 x_("ECN_ESB_37055_37125",_"ESB_AJI_37810_37905")_ + 1 x_("ECN_ESB_37055_37125",_"ESB_SAW_38160_38220")_ + 1 x_("ECN_ESB_37055_37125",_"ESB_VAN_37885_37980")_ + 1 x_("ECN_ESB_37055_37125",_"ESB_MQM_38090_38185")_ + 1 x_("ECN_ESB_37055_37125",_"ESB_AYT_37980_38045")_ + 1 x_("ECN_ESB_37055_37125",_"ESB_GNY_38380_38455")_ + 1 x_("ECN_ESB_37055_37125",_"ESB_MLX_37180_37255")_ + 1 x_("ECN_ESB_37055_37125",_"ESB_ADB_38250_38330")_ + 1 x_("ECN_ESB_37055_37125",_"ESB_BAL_37825_37915")_ + 1 x_("ECN_ESB_37055_37125",_"ESB_ADA_38400_38460")_ + 1 x_("ECN_ESB_37055_37125",_"ESB_TZX_37800_37880")_ = 1
mp_c1_ADA_ESB_37060_37125_: 1 x_("ADA_ESB_37060_37125",_"ESB_ERC_38130_38210")_ + 1 x_("ADA_ESB_37060_37125",_"ESB_SAW_37800_37860")_ + 1 x_("ADA_ESB_37060_37125",_"ESB_SZF_38420_38480")_ + 1 x_("ADA_ESB_37060_37125",_"ESB_ECN_38100_38170")_ + 1 x_("ADA_ESB_37060_37125",_"ESB_SAW_38040_38100")_ + 1 x_("ADA_ESB_37060_37125",_"ESB_ECN_37185_37255")_ + 1 x_("ADA_ESB_37060_37125",_"ESB_YEI_37195_37255")_ + 1 x_("ADA_ESB_37060_37125",_"ESB_HTY_37190_37270")_ + 1 x_("ADA_ESB_37060_37125",_"ESB_AJI_37810_37905")_ + 1 x_("ADA_ESB_37060_37125",_"ESB_SAW_38160_38220")_ + 1 x_("ADA_ESB_37060_37125",_"ESB_VAN_37885_37980")_ + 1 x_("ADA_ESB_37060_37125",_"ESB_MQM_38090_38185")_ + 1 x_("ADA_ESB_37060_37125",_"ESB_AYT_37980_38045")_ + 1 x_("ADA_ESB_37060_37125",_"ESB_GNY_38380_38455")_ + 1 x_("ADA_ESB_37060_37125",_"ESB_MLX_37180_37255")_ + 1 x_("ADA_ESB_37060_37125",_"ESB_ADB_38250_38330")_ + 1 x_("ADA_ESB_37060_37125",_"ESB_BAL_37825_37915")_ + 1 x_("ADA_ESB_37060_37125",_"ESB_ADA_38400_38460")_ + 1 x_("ADA_ESB_37060_37125",_"ESB_TZX_37800_37880")_ = 1
mp_c1_SZF_ESB_37075_37135_: 1 x_("SZF_ESB_37075_37135",_"ESB_ERC_38130_38210")_ + 1 x_("SZF_ESB_37075_37135",_"ESB_SAW_37800_37860")_ + 1 x_("SZF_ESB_37075_37135",_"ESB_SZF_38420_38480")_ + 1 x_("SZF_ESB_37075_37135",_"ESB_ECN_38100_38170")_ + 1 x_("SZF_ESB_37075_37135",_"ESB_SAW_38040_38100")_ + 1 x_("SZF_ESB_37075_37135",_"ESB_ECN_37185_37255")_ + 1 x_("SZF_ESB_37075_37135",_"ESB_YEI_37195_37255")_ + 1 x_("SZF_ESB_37075_37135",_"ESB_HTY_37190_37270")_ + 1 x_("SZF_ESB_37075_37135",_"ESB_AJI_37810_37905")_ + 1 x_("SZF_ESB_37075_37135",_"ESB_SAW_38160_38220")_ + 1 x_("SZF_ESB_37075_37135",_"ESB_VAN_37885_37980")_ + 1 x_("SZF_ESB_37075_37135",_"ESB_MQM_38090_38185")_ + 1 x_("SZF_ESB_37075_37135",_"ESB_AYT_37980_38045")_ + 1 x_("SZF_ESB_37075_37135",_"ESB_GNY_38380_38455")_ + 1 x_("SZF_ESB_37075_37135",_"ESB_MLX_37180_37255")_ + 1 x_("SZF_ESB_37075_37135",_"ESB_ADB_38250_38330")_ + 1 x_("SZF_ESB_37075_37135",_"ESB_BAL_37825_37915")_ + 1 x_("SZF_ESB_37075_37135",_"ESB_ADA_38400_38460")_ + 1 x_("SZF_ESB_37075_37135",_"ESB_TZX_37800_37880")_ = 1
mp_c1_ASR_SAW_37095_37185_: 1 x_("ASR_SAW_37095_37185",_"SAW_VAS_38130_38210")_ + 1 x_("ASR_SAW_37095_37185",_"SAW_AYT_38145_38210")_ + 1 x_("ASR_SAW_37095_37185",_"SAW_ESB_38280_38340")_ + 1 x_("ASR_SAW_37095_37185",_"SAW_ASR_38415_38500")_ + 1 x_("ASR_SAW_37095_37185",_"SAW_ESB_37740_37800")_ + 1 x_("ASR_SAW_37095_37185",_"SAW_ESB_37920_37980")_ + 1 x_("ASR_SAW_37095_37185",_"SAW_ADB_37680_37740")_ + 1 x_("ASR_SAW_37095_37185",_"SAW_ADB_38370_38430")_ + 1 x_("ASR_SAW_37095_37185",_"SAW_TZX_37905_38005")_ + 1 x_("ASR_SAW_37095_37185",_"SAW_KYA_38430_38500")_ = 1
mp_c1_KYA_SAW_37095_37165_: 1 x_("KYA_SAW_37095_37165",_"SAW_VAS_38130_38210")_ + 1 x_("KYA_SAW_37095_37165",_"SAW_AYT_38145_38210")_ + 1 x_("KYA_SAW_37095_37165",_"SAW_ESB_38280_38340")_ + 1 x_("KYA_SAW_37095_37165",_"SAW_ASR_38415_38500")_ + 1 x_("KYA_SAW_37095_37165",_"SAW_ESB_37740_37800")_ + 1 x_("KYA_SAW_37095_37165",_"SAW_ESB_37920_37980")_ + 1 x_("KYA_SAW_37095_37165",_"SAW_ADB_37680_37740")_ + 1 x_("KYA_SAW_37095_37165",_"SAW_ADB_38370_38430")_ + 1 x_("KYA_SAW_37095_37165",_"SAW_TZX_37905_38005")_ + 1 x_("KYA_SAW_37095_37165",_"SAW_KYA_38430_38500")_ = 1
mp_c1_ESB_MLX_37180_37255_: 1 x_("ESB_MLX_37180_37255",_"MLX_ESB_37680_37755")_ = 1
mp_c1_ESB_ECN_37185_37255_: 1 x_("ESB_ECN_37185_37255",_"ECN_HTY_38280_38345")_ + 1 x_("ESB_ECN_37185_37255",_"ECN_ESB_37680_37750")_ + 1 x_("ESB_ECN_37185_37255",_"ECN_ESB_38495_38565")_ = 1
mp_c1_ESB_HTY_37190_37270_: 1 x_("ESB_HTY_37190_37270",_"HTY_ECN_38385_38450")_ + 1 x_("ESB_HTY_37190_37270",_"HTY_ESB_37680_37755")_ = 1
mp_c1_ESB_YEI_37195_37255_: 1 x_("ESB_YEI_37195_37255",_"YEI_ESB_37680_37740")_ = 1
mp_c1_SAW_ADB_37680_37740_: 1 x_("SAW_ADB_37680_37740",_"ADB_ESB_38365_38440")_ + 1 x_("SAW_ADB_37680_37740",_"ADB_SAW_37775_37835")_ + 1 x_("SAW_ADB_37680_37740",_"ADB_SAW_38465_38525")_ = 1
mp_c1_ECN_ESB_37680_37750_: 1 x_("ECN_ESB_37680_37750",_"ESB_ERC_38130_38210")_ + 1 x_("ECN_ESB_37680_37750",_"ESB_SAW_37800_37860")_ + 1 x_("ECN_ESB_37680_37750",_"ESB_SZF_38420_38480")_ + 1 x_("ECN_ESB_37680_37750",_"ESB_ECN_38100_38170")_ + 1 x_("ECN_ESB_37680_37750",_"ESB_ECN_38625_38695")_ + 1 x_("ECN_ESB_37680_37750",_"ESB_SAW_38040_38100")_ + 1 x_("ECN_ESB_37680_37750",_"ESB_AJI_37810_37905")_ + 1 x_("ECN_ESB_37680_37750",_"ESB_MLX_38620_38695")_ + 1 x_("ECN_ESB_37680_37750",_"ESB_SAW_38160_38220")_ + 1 x_("ECN_ESB_37680_37750",_"ESB_HTY_38630_38710")_ + 1 x_("ECN_ESB_37680_37750",_"ESB_VAN_37885_37980")_ + 1 x_("ECN_ESB_37680_37750",_"ESB_MQM_38090_38185")_ + 1 x_("ECN_ESB_37680_37750",_"ESB_AYT_37980_38045")_ + 1 x_("ECN_ESB_37680_37750",_"ESB_GNY_38380_38455")_ + 1 x_("ECN_ESB_37680_37750",_"ESB_YEI_38635_38695")_ + 1 x_("ECN_ESB_37680_37750",_"ESB_ADB_38250_38330")_ + 1 x_("ECN_ESB_37680_37750",_"ESB_BAL_37825_37915")_ + 1 x_("ECN_ESB_37680_37750",_"ESB_ADA_38400_38460")_ + 1 x_("ECN_ESB_37680_37750",_"ESB_TZX_37800_37880")_ = 1
mp_c1_YEI_ESB_37680_37740_: 1 x_("YEI_ESB_37680_37740",_"ESB_ERC_38130_38210")_ + 1 x_("YEI_ESB_37680_37740",_"ESB_SAW_37800_37860")_ + 1 x_("YEI_ESB_37680_37740",_"ESB_SZF_38420_38480")_ + 1 x_("YEI_ESB_37680_37740",_"ESB_ECN_38100_38170")_ + 1 x_("YEI_ESB_37680_37740",_"ESB_ECN_38625_38695")_ + 1 x_("YEI_ESB_37680_37740",_"ESB_SAW_38040_38100")_ + 1 x_("YEI_ESB_37680_37740",_"ESB_AJI_37810_37905")_ + 1 x_("YEI_ESB_37680_37740",_"ESB_MLX_38620_38695")_ + 1 x_("YEI_ESB_37680_37740",_"ESB_SAW_38160_38220")_ + 1 x_("YEI_ESB_37680_37740",_"ESB_HTY_38630_38710")_ + 1 x_("YEI_ESB_37680_37740",_"ESB_VAN_37885_37980")_ + 1 x_("YEI_ESB_37680_37740",_"ESB_MQM_38090_38185")_ + 1 x_("YEI_ESB_37680_37740",_"ESB_AYT_37980_38045")_ + 1 x_("YEI_ESB_37680_37740",_"ESB_GNY_38380_38455")_ + 1 x_("YEI_ESB_37680_37740",_"ESB_YEI_38635_38695")_ + 1 x_("YEI_ESB_37680_37740",_"ESB_ADB_38250_38330")_ + 1 x_("YEI_ESB_37680_37740",_"ESB_BAL_37825_37915")_ + 1 x_("YEI_ESB_37680_37740",_"ESB_ADA_38400_38460")_ + 1 x_("YEI_ESB_37680_37740",_"ESB_TZX_37800_37880")_ = 1
mp_c1_MLX_ESB_37680_37755_: 1 x_("MLX_ESB_37680_37755",_"ESB_ERC_38130_38210")_ + 1 x_("MLX_ESB_37680_37755",_"ESB_SAW_37800_37860")_ + 1 x_("MLX_ESB_37680_37755",_"ESB_SZF_38420_38480")_ + 1 x_("MLX_ESB_37680_37755",_"ESB_ECN_38100_38170")_ + 1 x_("MLX_ESB_37680_37755",_"ESB_ECN_38625_38695")_ + 1 x_("MLX_ESB_37680_37755",_"ESB_SAW_38040_38100")_ + 1 x_("MLX_ESB_37680_37755",_"ESB_AJI_37810_37905")_ + 1 x_("MLX_ESB_37680_37755",_"ESB_MLX_38620_38695")_ + 1 x_("MLX_ESB_37680_37755",_"ESB_SAW_38160_38220")_ + 1 x_("MLX_ESB_37680_37755",_"ESB_HTY_38630_38710")_ + 1 x_("MLX_ESB_37680_37755",_"ESB_VAN_37885_37980")_ + 1 x_("MLX_ESB_37680_37755",_"ESB_MQM_38090_38185")_ + 1 x_("MLX_ESB_37680_37755",_"ESB_AYT_37980_38045")_ + 1 x_("MLX_ESB_37680_37755",_"ESB_GNY_38380_38455")_ + 1 x_("MLX_ESB_37680_37755",_"ESB_YEI_38635_38695")_ + 1 x_("MLX_ESB_37680_37755",_"ESB_ADB_38250_38330")_ + 1 x_("MLX_ESB_37680_37755",_"ESB_BAL_37825_37915")_ + 1 x_("MLX_ESB_37680_37755",_"ESB_ADA_38400_38460")_ + 1 x_("MLX_ESB_37680_37755",_"ESB_TZX_37800_37880")_ = 1
mp_c1_HTY_ESB_37680_37755_: 1 x_("HTY_ESB_37680_37755",_"ESB_ERC_38130_38210")_ + 1 x_("HTY_ESB_37680_37755",_"ESB_SAW_37800_37860")_ + 1 x_("HTY_ESB_37680_37755",_"ESB_SZF_38420_38480")_ + 1 x_("HTY_ESB_37680_37755",_"ESB_ECN_38100_38170")_ + 1 x_("HTY_ESB_37680_37755",_"ESB_ECN_38625_38695")_ + 1 x_("HTY_ESB_37680_37755",_"ESB_SAW_38040_38100")_ + 1 x_("HTY_ESB_37680_37755",_"ESB_AJI_37810_37905")_ + 1 x_("HTY_ESB_37680_37755",_"ESB_MLX_38620_38695")_ + 1 x_("HTY_ESB_37680_37755",_"ESB_SAW_38160_38220")_ + 1 x_("HTY_ESB_37680_37755",_"ESB_HTY_38630_38710")_ + 1 x_("HTY_ESB_37680_37755",_"ESB_VAN_37885_37980")_ + 1 x_("HTY_ESB_37680_37755",_"ESB_MQM_38090_38185")_ + 1 x_("HTY_ESB_37680_37755",_"ESB_AYT_37980_38045")_ + 1 x_("HTY_ESB_37680_37755",_"ESB_GNY_38380_38455")_ + 1 x_("HTY_ESB_37680_37755",_"ESB_YEI_38635_38695")_ + 1 x_("HTY_ESB_37680_37755",_"ESB_ADB_38250_38330")_ + 1 x_("HTY_ESB_37680_37755",_"ESB_BAL_37825_37915")_ + 1 x_("HTY_ESB_37680_37755",_"ESB_ADA_38400_38460")_ + 1 x_("HTY_ESB_37680_37755",_"ESB_TZX_37800_37880")_ = 1
mp_c1_SAW_ESB_37740_37800_: 1 x_("SAW_ESB_37740_37800",_"ESB_ERC_38130_38210")_ + 1 x_("SAW_ESB_37740_37800",_"ESB_SZF_38420_38480")_ + 1 x_("SAW_ESB_37740_37800",_"ESB_ECN_38100_38170")_ + 1 x_("SAW_ESB_37740_37800",_"ESB_ECN_38625_38695")_ + 1 x_("SAW_ESB_37740_37800",_"ESB_SAW_38040_38100")_ + 1 x_("SAW_ESB_37740_37800",_"ESB_MLX_38620_38695")_ + 1 x_("SAW_ESB_37740_37800",_"ESB_SAW_38160_38220")_ + 1 x_("SAW_ESB_37740_37800",_"ESB_TZX_39240_39320")_ + 1 x_("SAW_ESB_37740_37800",_"ESB_HTY_38630_38710")_ + 1 x_("SAW_ESB_37740_37800",_"ESB_VAN_37885_37980")_ + 1 x_("SAW_ESB_37740_37800",_"ESB_MQM_38090_38185")_ + 1 x_("SAW_ESB_37740_37800",_"ESB_AYT_37980_38045")_ + 1 x_("SAW_ESB_37740_37800",_"ESB_GNY_38380_38455")_ + 1 x_("SAW_ESB_37740_37800",_"ESB_YEI_38635_38695")_ + 1 x_("SAW_ESB_37740_37800",_"ESB_ADB_38250_38330")_ + 1 x_("SAW_ESB_37740_37800",_"ESB_ADA_38400_38460")_ = 1
mp_c1_ADB_SAW_37775_37835_: 1 x_("ADB_SAW_37775_37835",_"SAW_VAS_38130_38210")_ + 1 x_("ADB_SAW_37775_37835",_"SAW_ADB_39120_39180")_ + 1 x_("ADB_SAW_37775_37835",_"SAW_AYT_38145_38210")_ + 1 x_("ADB_SAW_37775_37835",_"SAW_ESB_38280_38340")_ + 1 x_("ADB_SAW_37775_37835",_"SAW_ASR_38415_38500")_ + 1 x_("ADB_SAW_37775_37835",_"SAW_ESB_37920_37980")_ + 1 x_("ADB_SAW_37775_37835",_"SAW_ADB_38370_38430")_ + 1 x_("ADB_SAW_37775_37835",_"SAW_TZX_37905_38005")_ + 1 x_("ADB_SAW_37775_37835",_"SAW_KYA_38430_38500")_ = 1
mp_c1_ESB_SAW_37800_37860_: 1 x_("ESB_SAW_37800_37860",_"SAW_VAS_38130_38210")_ + 1 x_("ESB_SAW_37800_37860",_"SAW_ADB_39120_39180")_ + 1 x_("ESB_SAW_37800_37860",_"SAW_AYT_38145_38210")_ + 1 x_("ESB_SAW_37800_37860",_"SAW_ESB_38280_38340")_ + 1 x_("ESB_SAW_37800_37860",_"SAW_ASR_38415_38500")_ + 1 x_("ESB_SAW_37800_37860",_"SAW_ESB_37920_37980")_ + 1 x_("ESB_SAW_37800_37860",_"SAW_ADB_38370_38430")_ + 1 x_("ESB_SAW_37800_37860",_"SAW_TZX_37905_38005")_ + 1 x_("ESB_SAW_37800_37860",_"SAW_KYA_38430_38500")_ = 1
mp_c1_ESB_TZX_37800_37880_: 1 x_("ESB_TZX_37800_37880",_"TZX_SAW_38040_38145")_ + 1 x_("ESB_TZX_37800_37880",_"TZX_ESB_37915_37995")_ = 1
mp_c1_ESB_AJI_37810_37905_: 1 x_("ESB_AJI_37810_37905",_"AJI_ESB_37940_38045")_ = 1
mp_c1_ESB_BAL_37825_37915_: 1 x_("ESB_BAL_37825_37915",_"BAL_ESB_37950_38045")_ = 1
mp_c1_ESB_VAN_37885_37980_: 1 x_("ESB_VAN_37885_37980",_"VAN_ESB_38015_38120")_ = 1
mp_c1_SAW_TZX_37905_38005_: 1 x_("SAW_TZX_37905_38005",_"TZX_SAW_38040_38145")_ + 1 x_("SAW_TZX_37905_38005",_"TZX_ESB_39355_39435")_ = 1
mp_c1_TZX_ESB_37915_37995_: 1 x_("TZX_ESB_37915_37995",_"ESB_ERC_38130_38210")_ + 1 x_("TZX_ESB_37915_37995",_"ESB_SZF_38420_38480")_ + 1 x_("TZX_ESB_37915_37995",_"ESB_ECN_38100_38170")_ + 1 x_("TZX_ESB_37915_37995",_"ESB_ECN_38625_38695")_ + 1 x_("TZX_ESB_37915_37995",_"ESB_SAW_38040_38100")_ + 1 x_("TZX_ESB_37915_37995",_"ESB_MLX_38620_38695")_ + 1 x_("TZX_ESB_37915_37995",_"ESB_SAW_38160_38220")_ + 1 x_("TZX_ESB_37915_37995",_"ESB_TZX_39240_39320")_ + 1 x_("TZX_ESB_37915_37995",_"ESB_HTY_38630_38710")_ + 1 x_("TZX_ESB_37915_37995",_"ESB_MQM_38090_38185")_ + 1 x_("TZX_ESB_37915_37995",_"ESB_GNY_38380_38455")_ + 1 x_("TZX_ESB_37915_37995",_"ESB_YEI_38635_38695")_ + 1 x_("TZX_ESB_37915_37995",_"ESB_BAL_39265_39355")_ + 1 x_("TZX_ESB_37915_37995",_"ESB_ADB_38250_38330")_ + 1 x_("TZX_ESB_37915_37995",_"ESB_VAN_39325_39420")_ + 1 x_("TZX_ESB_37915_37995",_"ESB_ADA_38400_38460")_ = 1
mp_c1_SAW_ESB_37920_37980_: 1 x_("SAW_ESB_37920_37980",_"ESB_ERC_38130_38210")_ + 1 x_("SAW_ESB_37920_37980",_"ESB_SZF_38420_38480")_ + 1 x_("SAW_ESB_37920_37980",_"ESB_ECN_38100_38170")_ + 1 x_("SAW_ESB_37920_37980",_"ESB_ECN_38625_38695")_ + 1 x_("SAW_ESB_37920_37980",_"ESB_SAW_38040_38100")_ + 1 x_("SAW_ESB_37920_37980",_"ESB_MLX_38620_38695")_ + 1 x_("SAW_ESB_37920_37980",_"ESB_SAW_38160_38220")_ + 1 x_("SAW_ESB_37920_37980",_"ESB_TZX_39240_39320")_ + 1 x_("SAW_ESB_37920_37980",_"ESB_HTY_38630_38710")_ + 1 x_("SAW_ESB_37920_37980",_"ESB_MQM_38090_38185")_ + 1 x_("SAW_ESB_37920_37980",_"ESB_GNY_38380_38455")_ + 1 x_("SAW_ESB_37920_37980",_"ESB_YEI_38635_38695")_ + 1 x_("SAW_ESB_37920_37980",_"ESB_BAL_39265_39355")_ + 1 x_("SAW_ESB_37920_37980",_"ESB_ADB_38250_38330")_ + 1 x_("SAW_ESB_37920_37980",_"ESB_VAN_39325_39420")_ + 1 x_("SAW_ESB_37920_37980",_"ESB_ADA_38400_38460")_ = 1
mp_c1_AJI_ESB_37940_38045_: 1 x_("AJI_ESB_37940_38045",_"ESB_SAW_39480_39540")_ + 1 x_("AJI_ESB_37940_38045",_"ESB_ERC_38130_38210")_ + 1 x_("AJI_ESB_37940_38045",_"ESB_SZF_38420_38480")_ + 1 x_("AJI_ESB_37940_38045",_"ESB_ECN_38100_38170")_ + 1 x_("AJI_ESB_37940_38045",_"ESB_ECN_38625_38695")_ + 1 x_("AJI_ESB_37940_38045",_"ESB_MLX_38620_38695")_ + 1 x_("AJI_ESB_37940_38045",_"ESB_SAW_38160_38220")_ + 1 x_("AJI_ESB_37940_38045",_"ESB_TZX_39240_39320")_ + 1 x_("AJI_ESB_37940_38045",_"ESB_HTY_38630_38710")_ + 1 x_("AJI_ESB_37940_38045",_"ESB_MQM_38090_38185")_ + 1 x_("AJI_ESB_37940_38045",_"ESB_GNY_38380_38455")_ + 1 x_("AJI_ESB_37940_38045",_"ESB_YEI_38635_38695")_ + 1 x_("AJI_ESB_37940_38045",_"ESB_BAL_39265_39355")_ + 1 x_("AJI_ESB_37940_38045",_"ESB_ADB_38250_38330")_ + 1 x_("AJI_ESB_37940_38045",_"ESB_VAN_39325_39420")_ + 1 x_("AJI_ESB_37940_38045",_"ESB_ADA_38400_38460")_ = 1
mp_c1_BAL_ESB_37950_38045_: 1 x_("BAL_ESB_37950_38045",_"ESB_SAW_39480_39540")_ + 1 x_("BAL_ESB_37950_38045",_"ESB_ERC_38130_38210")_ + 1 x_("BAL_ESB_37950_38045",_"ESB_SZF_38420_38480")_ + 1 x_("BAL_ESB_37950_38045",_"ESB_ECN_38100_38170")_ + 1 x_("BAL_ESB_37950_38045",_"ESB_ECN_38625_38695")_ + 1 x_("BAL_ESB_37950_38045",_"ESB_MLX_38620_38695")_ + 1 x_("BAL_ESB_37950_38045",_"ESB_SAW_38160_38220")_ + 1 x_("BAL_ESB_37950_38045",_"ESB_TZX_39240_39320")_ + 1 x_("BAL_ESB_37950_38045",_"ESB_HTY_38630_38710")_ + 1 x_("BAL_ESB_37950_38045",_"ESB_MQM_38090_38185")_ + 1 x_("BAL_ESB_37950_38045",_"ESB_GNY_38380_38455")_ + 1 x_("BAL_ESB_37950_38045",_"ESB_YEI_38635_38695")_ + 1 x_("BAL_ESB_37950_38045",_"ESB_BAL_39265_39355")_ + 1 x_("BAL_ESB_37950_38045",_"ESB_ADB_38250_38330")_ + 1 x_("BAL_ESB_37950_38045",_"ESB_VAN_39325_39420")_ + 1 x_("BAL_ESB_37950_38045",_"ESB_ADA_38400_38460")_ = 1
mp_c1_ESB_AYT_37980_38045_: 1 x_("ESB_AYT_37980_38045",_"AYT_ESB_38080_38145")_ + 1 x_("ESB_AYT_37980_38045",_"AYT_SAW_38250_38315")_ = 1
mp_c1_VAN_ESB_38015_38120_: 1 x_("VAN_ESB_38015_38120",_"ESB_SAW_39480_39540")_ + 1 x_("VAN_ESB_38015_38120",_"ESB_SZF_38420_38480")_ + 1 x_("VAN_ESB_38015_38120",_"ESB_ECN_38625_38695")_ + 1 x_("VAN_ESB_38015_38120",_"ESB_MLX_38620_38695")_ + 1 x_("VAN_ESB_38015_38120",_"ESB_SAW_38160_38220")_ + 1 x_("VAN_ESB_38015_38120",_"ESB_MQM_39530_39625")_ + 1 x_("VAN_ESB_38015_38120",_"ESB_TZX_39240_39320")_ + 1 x_("VAN_ESB_38015_38120",_"ESB_HTY_38630_38710")_ + 1 x_("VAN_ESB_38015_38120",_"ESB_GNY_38380_38455")_ + 1 x_("VAN_ESB_38015_38120",_"ESB_YEI_38635_38695")_ + 1 x_("VAN_ESB_38015_38120",_"ESB_BAL_39265_39355")_ + 1 x_("VAN_ESB_38015_38120",_"ESB_EZS_39555_39630")_ + 1 x_("VAN_ESB_38015_38120",_"ESB_ADB_38250_38330")_ + 1 x_("VAN_ESB_38015_38120",_"ESB_VAN_39325_39420")_ + 1 x_("VAN_ESB_38015_38120",_"ESB_ADA_38400_38460")_ = 1
mp_c1_TZX_SAW_38040_38145_: 1 x_("TZX_SAW_38040_38145",_"SAW_ADB_39120_39180")_ + 1 x_("TZX_SAW_38040_38145",_"SAW_ESB_38280_38340")_ + 1 x_("TZX_SAW_38040_38145",_"SAW_ASR_38415_38500")_ + 1 x_("TZX_SAW_38040_38145",_"SAW_NAJ_39350_39490")_ + 1 x_("TZX_SAW_38040_38145",_"SAW_AYT_39585_39650")_ + 1 x_("TZX_SAW_38040_38145",_"SAW_ADB_38370_38430")_ + 1 x_("TZX_SAW_38040_38145",_"SAW_KYA_38430_38500")_ + 1 x_("TZX_SAW_38040_38145",_"SAW_TZX_39345_39445")_ + 1 x_("TZX_SAW_38040_38145",_"SAW_ESB_39360_39420")_ = 1
mp_c1_ESB_SAW_38040_38100_: 1 x_("ESB_SAW_38040_38100",_"SAW_ADB_39120_39180")_ + 1 x_("ESB_SAW_38040_38100",_"SAW_AYT_38145_38210")_ + 1 x_("ESB_SAW_38040_38100",_"SAW_ESB_38280_38340")_ + 1 x_("ESB_SAW_38040_38100",_"SAW_ASR_38415_38500")_ + 1 x_("ESB_SAW_38040_38100",_"SAW_NAJ_39350_39490")_ + 1 x_("ESB_SAW_38040_38100",_"SAW_ADB_38370_38430")_ + 1 x_("ESB_SAW_38040_38100",_"SAW_KYA_38430_38500")_ + 1 x_("ESB_SAW_38040_38100",_"SAW_TZX_39345_39445")_ + 1 x_("ESB_SAW_38040_38100",_"SAW_ESB_39360_39420")_ = 1
mp_c1_AYT_ESB_38080_38145_: 1 x_("AYT_ESB_38080_38145",_"ESB_SAW_39480_39540")_ + 1 x_("AYT_ESB_38080_38145",_"ESB_SZF_38420_38480")_ + 1 x_("AYT_ESB_38080_38145",_"ESB_ECN_38625_38695")_ + 1 x_("AYT_ESB_38080_38145",_"ESB_MLX_38620_38695")_ + 1 x_("AYT_ESB_38080_38145",_"ESB_MQM_39530_39625")_ + 1 x_("AYT_ESB_38080_38145",_"ESB_TZX_39240_39320")_ + 1 x_("AYT_ESB_38080_38145",_"ESB_HTY_38630_38710")_ + 1 x_("AYT_ESB_38080_38145",_"ESB_GNY_38380_38455")_ + 1 x_("AYT_ESB_38080_38145",_"ESB_YEI_38635_38695")_ + 1 x_("AYT_ESB_38080_38145",_"ESB_BAL_39265_39355")_ + 1 x_("AYT_ESB_38080_38145",_"ESB_ERC_39570_39650")_ + 1 x_("AYT_ESB_38080_38145",_"ESB_EZS_39555_39630")_ + 1 x_("AYT_ESB_38080_38145",_"ESB_ADB_38250_38330")_ + 1 x_("AYT_ESB_38080_38145",_"ESB_VAN_39325_39420")_ + 1 x_("AYT_ESB_38080_38145",_"ESB_ADA_38400_38460")_ = 1
mp_c1_ESB_MQM_38090_38185_: 1 x_("ESB_MQM_38090_38185",_"MQM_ESB_38220_38315")_ = 1
mp_c1_ESB_ECN_38100_38170_: 1 x_("ESB_ECN_38100_38170",_"ECN_HTY_38280_38345")_ + 1 x_("ESB_ECN_38100_38170",_"ECN_ESB_39120_39190")_ + 1 x_("ESB_ECN_38100_38170",_"ECN_ESB_38495_38565")_ = 1
mp_c1_ESB_ERC_38130_38210_: 1 x_("ESB_ERC_38130_38210",_"ERC_ESB_38245_38325")_ = 1
mp_c1_SAW_VAS_38130_38210_: 1 x_("SAW_VAS_38130_38210",_"VAS_SAW_38245_38325")_ = 1
mp_c1_SAW_AYT_38145_38210_: 1 x_("SAW_AYT_38145_38210",_"AYT_SAW_38250_38315")_ = 1
mp_c1_ESB_SAW_38160_38220_: 1 x_("ESB_SAW_38160_38220",_"SAW_ADB_39120_39180")_ + 1 x_("ESB_SAW_38160_38220",_"SAW_ESB_38280_38340")_ + 1 x_("ESB_SAW_38160_38220",_"SAW_ASR_38415_38500")_ + 1 x_("ESB_SAW_38160_38220",_"SAW_NAJ_39350_39490")_ + 1 x_("ESB_SAW_38160_38220",_"SAW_AYT_39585_39650")_ + 1 x_("ESB_SAW_38160_38220",_"SAW_ADB_38370_38430")_ + 1 x_("ESB_SAW_38160_38220",_"SAW_KYA_38430_38500")_ + 1 x_("ESB_SAW_38160_38220",_"SAW_TZX_39345_39445")_ + 1 x_("ESB_SAW_38160_38220",_"SAW_ESB_39360_39420")_ = 1
mp_c1_MQM_ESB_38220_38315_: 1 x_("MQM_ESB_38220_38315",_"ESB_ADB_39690_39770")_ + 1 x_("MQM_ESB_38220_38315",_"ESB_SAW_39480_39540")_ + 1 x_("MQM_ESB_38220_38315",_"ESB_SZF_38420_38480")_ + 1 x_("MQM_ESB_38220_38315",_"ESB_ECN_38625_38695")_ + 1 x_("MQM_ESB_38220_38315",_"ESB_SAW_39600_39660")_ + 1 x_("MQM_ESB_38220_38315",_"ESB_MLX_38620_38695")_ + 1 x_("MQM_ESB_38220_38315",_"ESB_MQM_39530_39625")_ + 1 x_("MQM_ESB_38220_38315",_"ESB_TZX_39240_39320")_ + 1 x_("MQM_ESB_38220_38315",_"ESB_HTY_38630_38710")_ + 1 x_("MQM_ESB_38220_38315",_"ESB_GNY_38380_38455")_ + 1 x_("MQM_ESB_38220_38315",_"ESB_YEI_38635_38695")_ + 1 x_("MQM_ESB_38220_38315",_"ESB_BAL_39265_39355")_ + 1 x_("MQM_ESB_38220_38315",_"ESB_ERC_39570_39650")_ + 1 x_("MQM_ESB_38220_38315",_"ESB_EZS_39555_39630")_ + 1 x_("MQM_ESB_38220_38315",_"ESB_VAN_39325_39420")_ + 1 x_("MQM_ESB_38220_38315",_"ESB_ADA_38400_38460")_ = 1
mp_c1_ERC_ESB_38245_38325_: 1 x_("ERC_ESB_38245_38325",_"ESB_ADB_39690_39770")_ + 1 x_("ERC_ESB_38245_38325",_"ESB_SAW_39480_39540")_ + 1 x_("ERC_ESB_38245_38325",_"ESB_SZF_38420_38480")_ + 1 x_("ERC_ESB_38245_38325",_"ESB_ECN_38625_38695")_ + 1 x_("ERC_ESB_38245_38325",_"ESB_SAW_39600_39660")_ + 1 x_("ERC_ESB_38245_38325",_"ESB_MLX_38620_38695")_ + 1 x_("ERC_ESB_38245_38325",_"ESB_MQM_39530_39625")_ + 1 x_("ERC_ESB_38245_38325",_"ESB_TZX_39240_39320")_ + 1 x_("ERC_ESB_38245_38325",_"ESB_HTY_38630_38710")_ + 1 x_("ERC_ESB_38245_38325",_"ESB_GNY_38380_38455")_ + 1 x_("ERC_ESB_38245_38325",_"ESB_YEI_38635_38695")_ + 1 x_("ERC_ESB_38245_38325",_"ESB_BAL_39265_39355")_ + 1 x_("ERC_ESB_38245_38325",_"ESB_ERC_39570_39650")_ + 1 x_("ERC_ESB_38245_38325",_"ESB_EZS_39555_39630")_ + 1 x_("ERC_ESB_38245_38325",_"ESB_VAN_39325_39420")_ + 1 x_("ERC_ESB_38245_38325",_"ESB_ADA_38400_38460")_ = 1
mp_c1_VAS_SAW_38245_38325_: 1 x_("VAS_SAW_38245_38325",_"SAW_ADB_39120_39180")_ + 1 x_("VAS_SAW_38245_38325",_"SAW_ASR_38415_38500")_ + 1 x_("VAS_SAW_38245_38325",_"SAW_NAJ_39350_39490")_ + 1 x_("VAS_SAW_38245_38325",_"SAW_AYT_39585_39650")_ + 1 x_("VAS_SAW_38245_38325",_"SAW_ESB_39720_39780")_ + 1 x_("VAS_SAW_38245_38325",_"SAW_ADB_38370_38430")_ + 1 x_("VAS_SAW_38245_38325",_"SAW_KYA_38430_38500")_ + 1 x_("VAS_SAW_38245_38325",_"SAW_TZX_39345_39445")_ + 1 x_("VAS_SAW_38245_38325",_"SAW_ESB_39360_39420")_ = 1
mp_c1_ESB_ADB_38250_38330_: 1 x_("ESB_ADB_38250_38330",_"ADB_ESB_38365_38440")_ + 1 x_("ESB_ADB_38250_38330",_"ADB_SAW_39215_39275")_ + 1 x_("ESB_ADB_38250_38330",_"ADB_SAW_38465_38525")_ = 1
mp_c1_AYT_SAW_38250_38315_: 1 x_("AYT_SAW_38250_38315",_"SAW_ADB_39120_39180")_ + 1 x_("AYT_SAW_38250_38315",_"SAW_ASR_38415_38500")_ + 1 x_("AYT_SAW_38250_38315",_"SAW_NAJ_39350_39490")_ + 1 x_("AYT_SAW_38250_38315",_"SAW_AYT_39585_39650")_ + 1 x_("AYT_SAW_38250_38315",_"SAW_ESB_39720_39780")_ + 1 x_("AYT_SAW_38250_38315",_"SAW_ADB_38370_38430")_ + 1 x_("AYT_SAW_38250_38315",_"SAW_KYA_38430_38500")_ + 1 x_("AYT_SAW_38250_38315",_"SAW_TZX_39345_39445")_ + 1 x_("AYT_SAW_38250_38315",_"SAW_ESB_39360_39420")_ = 1
mp_c1_SAW_ESB_38280_38340_: 1 x_("SAW_ESB_38280_38340",_"ESB_ADB_39690_39770")_ + 1 x_("SAW_ESB_38280_38340",_"ESB_SAW_39480_39540")_ + 1 x_("SAW_ESB_38280_38340",_"ESB_SZF_38420_38480")_ + 1 x_("SAW_ESB_38280_38340",_"ESB_ECN_38625_38695")_ + 1 x_("SAW_ESB_38280_38340",_"ESB_SAW_39600_39660")_ + 1 x_("SAW_ESB_38280_38340",_"ESB_MLX_38620_38695")_ + 1 x_("SAW_ESB_38280_38340",_"ESB_MQM_39530_39625")_ + 1 x_("SAW_ESB_38280_38340",_"ESB_TZX_39240_39320")_ + 1 x_("SAW_ESB_38280_38340",_"ESB_HTY_38630_38710")_ + 1 x_("SAW_ESB_38280_38340",_"ESB_GNY_38380_38455")_ + 1 x_("SAW_ESB_38280_38340",_"ESB_YEI_38635_38695")_ + 1 x_("SAW_ESB_38280_38340",_"ESB_BAL_39265_39355")_ + 1 x_("SAW_ESB_38280_38340",_"ESB_ERC_39570_39650")_ + 1 x_("SAW_ESB_38280_38340",_"ESB_EZS_39555_39630")_ + 1 x_("SAW_ESB_38280_38340",_"ESB_VAN_39325_39420")_ + 1 x_("SAW_ESB_38280_38340",_"ESB_ADA_38400_38460")_ = 1
mp_c1_ECN_HTY_38280_38345_: 1 x_("ECN_HTY_38280_38345",_"HTY_ESB_39120_39195")_ + 1 x_("ECN_HTY_38280_38345",_"HTY_ECN_38385_38450")_ = 1
mp_c1_ADB_ESB_38365_38440_: 1 x_("ADB_ESB_38365_38440",_"ESB_ADB_39690_39770")_ + 1 x_("ADB_ESB_38365_38440",_"ESB_SAW_39480_39540")_ + 1 x_("ADB_ESB_38365_38440",_"ESB_ECN_38625_38695")_ + 1 x_("ADB_ESB_38365_38440",_"ESB_SAW_39600_39660")_ + 1 x_("ADB_ESB_38365_38440",_"ESB_ADA_39840_39900")_ + 1 x_("ADB_ESB_38365_38440",_"ESB_MLX_38620_38695")_ + 1 x_("ADB_ESB_38365_38440",_"ESB_MQM_39530_39625")_ + 1 x_("ADB_ESB_38365_38440",_"ESB_TZX_39240_39320")_ + 1 x_("ADB_ESB_38365_38440",_"ESB_HTY_38630_38710")_ + 1 x_("ADB_ESB_38365_38440",_"ESB_YEI_38635_38695")_ + 1 x_("ADB_ESB_38365_38440",_"ESB_GNY_39820_39895")_ + 1 x_("ADB_ESB_38365_38440",_"ESB_BAL_39265_39355")_ + 1 x_("ADB_ESB_38365_38440",_"ESB_ERC_39570_39650")_ + 1 x_("ADB_ESB_38365_38440",_"ESB_EZS_39555_39630")_ + 1 x_("ADB_ESB_38365_38440",_"ESB_VAN_39325_39420")_ + 1 x_("ADB_ESB_38365_38440",_"ESB_SZF_39860_39920")_ = 1
mp_c1_SAW_ADB_38370_38430_: 1 x_("SAW_ADB_38370_38430",_"ADB_ESB_39805_39880")_ + 1 x_("SAW_ADB_38370_38430",_"ADB_SAW_39215_39275")_ + 1 x_("SAW_ADB_38370_38430",_"ADB_SAW_38465_38525")_ = 1
mp_c1_ESB_GNY_38380_38455_: 1 x_("ESB_GNY_38380_38455",_"GNY_ESB_38490_38570")_ = 1
mp_c1_HTY_ECN_38385_38450_: 1 x_("HTY_ECN_38385_38450",_"ECN_ESB_39120_39190")_ + 1 x_("HTY_ECN_38385_38450",_"ECN_ESB_38495_38565")_ = 1
mp_c1_ESB_ADA_38400_38460_: 1 x_("ESB_ADA_38400_38460",_"ADA_ESB_38500_38565")_ = 1
mp_c1_SAW_ASR_38415_38500_: 1 x_("SAW_ASR_38415_38500",_"ASR_SAW_38535_38625")_ = 1
mp_c1_ESB_SZF_38420_38480_: 1 x_("ESB_SZF_38420_38480",_"SZF_ESB_38515_38575")_ = 1
mp_c1_SAW_KYA_38430_38500_: 1 x_("SAW_KYA_38430_38500",_"KYA_SAW_38535_38605")_ = 1
mp_c1_ADB_SAW_38465_38525_: 1 x_("ADB_SAW_38465_38525",_"SAW_ADB_39120_39180")_ + 1 x_("ADB_SAW_38465_38525",_"SAW_ASR_39855_39940")_ + 1 x_("ADB_SAW_38465_38525",_"SAW_ADB_39810_39870")_ + 1 x_("ADB_SAW_38465_38525",_"SAW_NAJ_39350_39490")_ + 1 x_("ADB_SAW_38465_38525",_"SAW_AYT_39585_39650")_ + 1 x_("ADB_SAW_38465_38525",_"SAW_ESB_39720_39780")_ + 1 x_("ADB_SAW_38465_38525",_"SAW_TZX_39345_39445")_ + 1 x_("ADB_SAW_38465_38525",_"SAW_ESB_39360_39420")_ = 1
mp_c1_GNY_ESB_38490_38570_: 1 x_("GNY_ESB_38490_38570",_"ESB_ADB_39690_39770")_ + 1 x_("GNY_ESB_38490_38570",_"ESB_SAW_39480_39540")_ + 1 x_("GNY_ESB_38490_38570",_"ESB_ECN_38625_38695")_ + 1 x_("GNY_ESB_38490_38570",_"ESB_SAW_39600_39660")_ + 1 x_("GNY_ESB_38490_38570",_"ESB_ADA_39840_39900")_ + 1 x_("GNY_ESB_38490_38570",_"ESB_MLX_38620_38695")_ + 1 x_("GNY_ESB_38490_38570",_"ESB_MQM_39530_39625")_ + 1 x_("GNY_ESB_38490_38570",_"ESB_TZX_39240_39320")_ + 1 x_("GNY_ESB_38490_38570",_"ESB_HTY_38630_38710")_ + 1 x_("GNY_ESB_38490_38570",_"ESB_YEI_38635_38695")_ + 1 x_("GNY_ESB_38490_38570",_"ESB_GNY_39820_39895")_ + 1 x_("GNY_ESB_38490_38570",_"ESB_BAL_39265_39355")_ + 1 x_("GNY_ESB_38490_38570",_"ESB_ERC_39570_39650")_ + 1 x_("GNY_ESB_38490_38570",_"ESB_EZS_39555_39630")_ + 1 x_("GNY_ESB_38490_38570",_"ESB_VAN_39325_39420")_ + 1 x_("GNY_ESB_38490_38570",_"ESB_SZF_39860_39920")_ = 1
mp_c1_ECN_ESB_38495_38565_: 1 x_("ECN_ESB_38495_38565",_"ESB_ADB_39690_39770")_ + 1 x_("ECN_ESB_38495_38565",_"ESB_SAW_39480_39540")_ + 1 x_("ECN_ESB_38495_38565",_"ESB_ECN_38625_38695")_ + 1 x_("ECN_ESB_38495_38565",_"ESB_SAW_39600_39660")_ + 1 x_("ECN_ESB_38495_38565",_"ESB_ADA_39840_39900")_ + 1 x_("ECN_ESB_38495_38565",_"ESB_MLX_38620_38695")_ + 1 x_("ECN_ESB_38495_38565",_"ESB_MQM_39530_39625")_ + 1 x_("ECN_ESB_38495_38565",_"ESB_TZX_39240_39320")_ + 1 x_("ECN_ESB_38495_38565",_"ESB_HTY_38630_38710")_ + 1 x_("ECN_ESB_38495_38565",_"ESB_YEI_38635_38695")_ + 1 x_("ECN_ESB_38495_38565",_"ESB_GNY_39820_39895")_ + 1 x_("ECN_ESB_38495_38565",_"ESB_BAL_39265_39355")_ + 1 x_("ECN_ESB_38495_38565",_"ESB_ERC_39570_39650")_ + 1 x_("ECN_ESB_38495_38565",_"ESB_EZS_39555_39630")_ + 1 x_("ECN_ESB_38495_38565",_"ESB_VAN_39325_39420")_ + 1 x_("ECN_ESB_38495_38565",_"ESB_SZF_39860_39920")_ = 1
mp_c1_ADA_ESB_38500_38565_: 1 x_("ADA_ESB_38500_38565",_"ESB_ADB_39690_39770")_ + 1 x_("ADA_ESB_38500_38565",_"ESB_SAW_39480_39540")_ + 1 x_("ADA_ESB_38500_38565",_"ESB_ECN_38625_38695")_ + 1 x_("ADA_ESB_38500_38565",_"ESB_SAW_39600_39660")_ + 1 x_("ADA_ESB_38500_38565",_"ESB_ADA_39840_39900")_ + 1 x_("ADA_ESB_38500_38565",_"ESB_MLX_38620_38695")_ + 1 x_("ADA_ESB_38500_38565",_"ESB_MQM_39530_39625")_ + 1 x_("ADA_ESB_38500_38565",_"ESB_TZX_39240_39320")_ + 1 x_("ADA_ESB_38500_38565",_"ESB_HTY_38630_38710")_ + 1 x_("ADA_ESB_38500_38565",_"ESB_YEI_38635_38695")_ + 1 x_("ADA_ESB_38500_38565",_"ESB_GNY_39820_39895")_ + 1 x_("ADA_ESB_38500_38565",_"ESB_BAL_39265_39355")_ + 1 x_("ADA_ESB_38500_38565",_"ESB_ERC_39570_39650")_ + 1 x_("ADA_ESB_38500_38565",_"ESB_EZS_39555_39630")_ + 1 x_("ADA_ESB_38500_38565",_"ESB_VAN_39325_39420")_ + 1 x_("ADA_ESB_38500_38565",_"ESB_SZF_39860_39920")_ = 1
mp_c1_SZF_ESB_38515_38575_: 1 x_("SZF_ESB_38515_38575",_"ESB_ADB_39690_39770")_ + 1 x_("SZF_ESB_38515_38575",_"ESB_SAW_39480_39540")_ + 1 x_("SZF_ESB_38515_38575",_"ESB_ECN_38625_38695")_ + 1 x_("SZF_ESB_38515_38575",_"ESB_SAW_39600_39660")_ + 1 x_("SZF_ESB_38515_38575",_"ESB_ADA_39840_39900")_ + 1 x_("SZF_ESB_38515_38575",_"ESB_MLX_38620_38695")_ + 1 x_("SZF_ESB_38515_38575",_"ESB_MQM_39530_39625")_ + 1 x_("SZF_ESB_38515_38575",_"ESB_TZX_39240_39320")_ + 1 x_("SZF_ESB_38515_38575",_"ESB_HTY_38630_38710")_ + 1 x_("SZF_ESB_38515_38575",_"ESB_YEI_38635_38695")_ + 1 x_("SZF_ESB_38515_38575",_"ESB_GNY_39820_39895")_ + 1 x_("SZF_ESB_38515_38575",_"ESB_BAL_39265_39355")_ + 1 x_("SZF_ESB_38515_38575",_"ESB_ERC_39570_39650")_ + 1 x_("SZF_ESB_38515_38575",_"ESB_EZS_39555_39630")_ + 1 x_("SZF_ESB_38515_38575",_"ESB_VAN_39325_39420")_ + 1 x_("SZF_ESB_38515_38575",_"ESB_SZF_39860_39920")_ = 1
mp_c1_ASR_SAW_38535_38625_: 1 x_("ASR_SAW_38535_38625",_"SAW_ADB_39120_39180")_ + 1 x_("ASR_SAW_38535_38625",_"SAW_ASR_39855_39940")_ + 1 x_("ASR_SAW_38535_38625",_"SAW_ADB_39810_39870")_ + 1 x_("ASR_SAW_38535_38625",_"SAW_NAJ_39350_39490")_ + 1 x_("ASR_SAW_38535_38625",_"SAW_AYT_39585_39650")_ + 1 x_("ASR_SAW_38535_38625",_"SAW_ESB_39720_39780")_ + 1 x_("ASR_SAW_38535_38625",_"SAW_TZX_39345_39445")_ + 1 x_("ASR_SAW_38535_38625",_"SAW_ESB_39360_39420")_ = 1
mp_c1_KYA_SAW_38535_38605_: 1 x_("KYA_SAW_38535_38605",_"SAW_ADB_39120_39180")_ + 1 x_("KYA_SAW_38535_38605",_"SAW_ASR_39855_39940")_ + 1 x_("KYA_SAW_38535_38605",_"SAW_ADB_39810_39870")_ + 1 x_("KYA_SAW_38535_38605",_"SAW_NAJ_39350_39490")_ + 1 x_("KYA_SAW_38535_38605",_"SAW_AYT_39585_39650")_ + 1 x_("KYA_SAW_38535_38605",_"SAW_ESB_39720_39780")_ + 1 x_("KYA_SAW_38535_38605",_"SAW_TZX_39345_39445")_ + 1 x_("KYA_SAW_38535_38605",_"SAW_ESB_39360_39420")_ = 1
mp_c1_ESB_MLX_38620_38695_: 1 x_("ESB_MLX_38620_38695",_"MLX_ESB_39120_39195")_ = 1
mp_c1_ESB_ECN_38625_38695_: 1 x_("ESB_ECN_38625_38695",_"ECN_ESB_39120_39190")_ = 1
mp_c1_ESB_HTY_38630_38710_: 1 x_("ESB_HTY_38630_38710",_"HTY_ESB_39120_39195")_ = 1
mp_c1_ESB_YEI_38635_38695_: 1 x_("ESB_YEI_38635_38695",_"YEI_ESB_39120_39180")_ = 1
mp_c1_SAW_ADB_39120_39180_: 1 x_("SAW_ADB_39120_39180",_"ADB_SAW_39905_39965")_ + 1 x_("SAW_ADB_39120_39180",_"ADB_ESB_39805_39880")_ + 1 x_("SAW_ADB_39120_39180",_"ADB_SAW_39215_39275")_ = 1
mp_c1_MLX_ESB_39120_39195_: 1 x_("MLX_ESB_39120_39195",_"ESB_HTY_40070_40150")_ + 1 x_("MLX_ESB_39120_39195",_"ESB_ADB_39690_39770")_ + 1 x_("MLX_ESB_39120_39195",_"ESB_SAW_39480_39540")_ + 1 x_("MLX_ESB_39120_39195",_"ESB_YEI_40075_40135")_ + 1 x_("MLX_ESB_39120_39195",_"ESB_ECN_40065_40135")_ + 1 x_("MLX_ESB_39120_39195",_"ESB_SAW_39600_39660")_ + 1 x_("MLX_ESB_39120_39195",_"ESB_ADA_39840_39900")_ + 1 x_("MLX_ESB_39120_39195",_"ESB_MQM_39530_39625")_ + 1 x_("MLX_ESB_39120_39195",_"ESB_TZX_39240_39320")_ + 1 x_("MLX_ESB_39120_39195",_"ESB_GNY_39820_39895")_ + 1 x_("MLX_ESB_39120_39195",_"ESB_BAL_39265_39355")_ + 1 x_("MLX_ESB_39120_39195",_"ESB_ERC_39570_39650")_ + 1 x_("MLX_ESB_39120_39195",_"ESB_EZS_39555_39630")_ + 1 x_("MLX_ESB_39120_39195",_"ESB_MLX_40060_40135")_ + 1 x_("MLX_ESB_39120_39195",_"ESB_VAN_39325_39420")_ + 1 x_("MLX_ESB_39120_39195",_"ESB_SZF_39860_39920")_ = 1
mp_c1_HTY_ESB_39120_39195_: 1 x_("HTY_ESB_39120_39195",_"ESB_HTY_40070_40150")_ + 1 x_("HTY_ESB_39120_39195",_"ESB_ADB_39690_39770")_ + 1 x_("HTY_ESB_39120_39195",_"ESB_SAW_39480_39540")_ + 1 x_("HTY_ESB_39120_39195",_"ESB_YEI_40075_40135")_ + 1 x_("HTY_ESB_39120_39195",_"ESB_ECN_40065_40135")_ + 1 x_("HTY_ESB_39120_39195",_"ESB_SAW_39600_39660")_ + 1 x_("HTY_ESB_39120_39195",_"ESB_ADA_39840_39900")_ + 1 x_("HTY_ESB_39120_39195",_"ESB_MQM_39530_39625")_ + 1 x_("HTY_ESB_39120_39195",_"ESB_TZX_39240_39320")_ + 1 x_("HTY_ESB_39120_39195",_"ESB_GNY_39820_39895")_ + 1 x_("HTY_ESB_39120_39195",_"ESB_BAL_39265_39355")_ + 1 x_("HTY_ESB_39120_39195",_"ESB_ERC_39570_39650")_ + 1 x_("HTY_ESB_39120_39195",_"ESB_EZS_39555_39630")_ + 1 x_("HTY_ESB_39120_39195",_"ESB_MLX_40060_40135")_ + 1 x_("HTY_ESB_39120_39195",_"ESB_VAN_39325_39420")_ + 1 x_("HTY_ESB_39120_39195",_"ESB_SZF_39860_39920")_ = 1
mp_c1_ECN_ESB_39120_39190_: 1 x_("ECN_ESB_39120_39190",_"ESB_HTY_40070_40150")_ + 1 x_("ECN_ESB_39120_39190",_"ESB_ADB_39690_39770")_ + 1 x_("ECN_ESB_39120_39190",_"ESB_SAW_39480_39540")_ + 1 x_("ECN_ESB_39120_39190",_"ESB_YEI_40075_40135")_ + 1 x_("ECN_ESB_39120_39190",_"ESB_ECN_40065_40135")_ + 1 x_("ECN_ESB_39120_39190",_"ESB_SAW_39600_39660")_ + 1 x_("ECN_ESB_39120_39190",_"ESB_ADA_39840_39900")_ + 1 x_("ECN_ESB_39120_39190",_"ESB_MQM_39530_39625")_ + 1 x_("ECN_ESB_39120_39190",_"ESB_TZX_39240_39320")_ + 1 x_("ECN_ESB_39120_39190",_"ESB_GNY_39820_39895")_ + 1 x_("ECN_ESB_39120_39190",_"ESB_BAL_39265_39355")_ + 1 x_("ECN_ESB_39120_39190",_"ESB_ERC_39570_39650")_ + 1 x_("ECN_ESB_39120_39190",_"ESB_EZS_39555_39630")_ + 1 x_("ECN_ESB_39120_39190",_"ESB_MLX_40060_40135")_ + 1 x_("ECN_ESB_39120_39190",_"ESB_VAN_39325_39420")_ + 1 x_("ECN_ESB_39120_39190",_"ESB_SZF_39860_39920")_ = 1
mp_c1_YEI_ESB_39120_39180_: 1 x_("YEI_ESB_39120_39180",_"ESB_HTY_40070_40150")_ + 1 x_("YEI_ESB_39120_39180",_"ESB_ADB_39690_39770")_ + 1 x_("YEI_ESB_39120_39180",_"ESB_SAW_39480_39540")_ + 1 x_("YEI_ESB_39120_39180",_"ESB_YEI_40075_40135")_ + 1 x_("YEI_ESB_39120_39180",_"ESB_ECN_40065_40135")_ + 1 x_("YEI_ESB_39120_39180",_"ESB_SAW_39600_39660")_ + 1 x_("YEI_ESB_39120_39180",_"ESB_ADA_39840_39900")_ + 1 x_("YEI_ESB_39120_39180",_"ESB_MQM_39530_39625")_ + 1 x_("YEI_ESB_39120_39180",_"ESB_TZX_39240_39320")_ + 1 x_("YEI_ESB_39120_39180",_"ESB_GNY_39820_39895")_ + 1 x_("YEI_ESB_39120_39180",_"ESB_BAL_39265_39355")_ + 1 x_("YEI_ESB_39120_39180",_"ESB_ERC_39570_39650")_ + 1 x_("YEI_ESB_39120_39180",_"ESB_EZS_39555_39630")_ + 1 x_("YEI_ESB_39120_39180",_"ESB_MLX_40060_40135")_ + 1 x_("YEI_ESB_39120_39180",_"ESB_VAN_39325_39420")_ + 1 x_("YEI_ESB_39120_39180",_"ESB_SZF_39860_39920")_ = 1
mp_c1_ADB_SAW_39215_39275_: 1 x_("ADB_SAW_39215_39275",_"SAW_ASR_39855_39940")_ + 1 x_("ADB_SAW_39215_39275",_"SAW_ADB_39810_39870")_ + 1 x_("ADB_SAW_39215_39275",_"SAW_NAJ_39350_39490")_ + 1 x_("ADB_SAW_39215_39275",_"SAW_ADB_40560_40620")_ + 1 x_("ADB_SAW_39215_39275",_"SAW_AYT_39585_39650")_ + 1 x_("ADB_SAW_39215_39275",_"SAW_ESB_39720_39780")_ + 1 x_("ADB_SAW_39215_39275",_"SAW_TZX_39345_39445")_ + 1 x_("ADB_SAW_39215_39275",_"SAW_ESB_39360_39420")_ = 1
mp_c1_ESB_TZX_39240_39320_: 1 x_("ESB_TZX_39240_39320",_"TZX_SAW_39480_39585")_ + 1 x_("ESB_TZX_39240_39320",_"TZX_ESB_39355_39435")_ = 1
mp_c1_ESB_BAL_39265_39355_: 1 x_("ESB_BAL_39265_39355",_"BAL_ESB_39390_39485")_ = 1
mp_c1_ESB_VAN_39325_39420_: 1 x_("ESB_VAN_39325_39420",_"VAN_ESB_39455_39560")_ = 1
mp_c1_SAW_TZX_39345_39445_: 1 x_("SAW_TZX_39345_39445",_"TZX_SAW_39480_39585")_ + 1 x_("SAW_TZX_39345_39445",_"TZX_ESB_40795_40875")_ = 1
mp_c1_SAW_NAJ_39350_39490_: 1 x_("SAW_NAJ_39350_39490",_"NAJ_SAW_39555_39710")_ = 1
mp_c1_TZX_ESB_39355_39435_: 1 x_("TZX_ESB_39355_39435",_"ESB_HTY_40070_40150")_ + 1 x_("TZX_ESB_39355_39435",_"ESB_ADB_39690_39770")_ + 1 x_("TZX_ESB_39355_39435",_"ESB_SAW_39480_39540")_ + 1 x_("TZX_ESB_39355_39435",_"ESB_YEI_40075_40135")_ + 1 x_("TZX_ESB_39355_39435",_"ESB_AYT_40860_40925")_ + 1 x_("TZX_ESB_39355_39435",_"ESB_ECN_40065_40135")_ + 1 x_("TZX_ESB_39355_39435",_"ESB_TZX_40680_40760")_ + 1 x_("TZX_ESB_39355_39435",_"ESB_VAN_40765_40860")_ + 1 x_("TZX_ESB_39355_39435",_"ESB_SAW_39600_39660")_ + 1 x_("TZX_ESB_39355_39435",_"ESB_ADA_39840_39900")_ + 1 x_("TZX_ESB_39355_39435",_"ESB_MQM_39530_39625")_ + 1 x_("TZX_ESB_39355_39435",_"ESB_AJI_40690_40785")_ + 1 x_("TZX_ESB_39355_39435",_"ESB_GNY_39820_39895")_ + 1 x_("TZX_ESB_39355_39435",_"ESB_ERC_39570_39650")_ + 1 x_("TZX_ESB_39355_39435",_"ESB_EZS_39555_39630")_ + 1 x_("TZX_ESB_39355_39435",_"ESB_MLX_40060_40135")_ + 1 x_("TZX_ESB_39355_39435",_"ESB_BAL_40705_40795")_ + 1 x_("TZX_ESB_39355_39435",_"ESB_SZF_39860_39920")_ = 1
mp_c1_SAW_ESB_39360_39420_: 1 x_("SAW_ESB_39360_39420",_"ESB_HTY_40070_40150")_ + 1 x_("SAW_ESB_39360_39420",_"ESB_ADB_39690_39770")_ + 1 x_("SAW_ESB_39360_39420",_"ESB_SAW_39480_39540")_ + 1 x_("SAW_ESB_39360_39420",_"ESB_YEI_40075_40135")_ + 1 x_("SAW_ESB_39360_39420",_"ESB_AYT_40860_40925")_ + 1 x_("SAW_ESB_39360_39420",_"ESB_ECN_40065_40135")_ + 1 x_("SAW_ESB_39360_39420",_"ESB_TZX_40680_40760")_ + 1 x_("SAW_ESB_39360_39420",_"ESB_VAN_40765_40860")_ + 1 x_("SAW_ESB_39360_39420",_"ESB_SAW_39600_39660")_ + 1 x_("SAW_ESB_39360_39420",_"ESB_ADA_39840_39900")_ + 1 x_("SAW_ESB_39360_39420",_"ESB_MQM_39530_39625")_ + 1 x_("SAW_ESB_39360_39420",_"ESB_AJI_40690_40785")_ + 1 x_("SAW_ESB_39360_39420",_"ESB_GNY_39820_39895")_ + 1 x_("SAW_ESB_39360_39420",_"ESB_ERC_39570_39650")_ + 1 x_("SAW_ESB_39360_39420",_"ESB_EZS_39555_39630")_ + 1 x_("SAW_ESB_39360_39420",_"ESB_MLX_40060_40135")_ + 1 x_("SAW_ESB_39360_39420",_"ESB_BAL_40705_40795")_ + 1 x_("SAW_ESB_39360_39420",_"ESB_SZF_39860_39920")_ = 1
mp_c1_BAL_ESB_39390_39485_: 1 x_("BAL_ESB_39390_39485",_"ESB_HTY_40070_40150")_ + 1 x_("BAL_ESB_39390_39485",_"ESB_ADB_39690_39770")_ + 1 x_("BAL_ESB_39390_39485",_"ESB_YEI_40075_40135")_ + 1 x_("BAL_ESB_39390_39485",_"ESB_AYT_40860_40925")_ + 1 x_("BAL_ESB_39390_39485",_"ESB_ECN_40065_40135")_ + 1 x_("BAL_ESB_39390_39485",_"ESB_TZX_40680_40760")_ + 1 x_("BAL_ESB_39390_39485",_"ESB_VAN_40765_40860")_ + 1 x_("BAL_ESB_39390_39485",_"ESB_SAW_39600_39660")_ + 1 x_("BAL_ESB_39390_39485",_"ESB_ADA_39840_39900")_ + 1 x_("BAL_ESB_39390_39485",_"ESB_MQM_39530_39625")_ + 1 x_("BAL_ESB_39390_39485",_"ESB_AJI_40690_40785")_ + 1 x_("BAL_ESB_39390_39485",_"ESB_GNY_39820_39895")_ + 1 x_("BAL_ESB_39390_39485",_"ESB_ERC_39570_39650")_ + 1 x_("BAL_ESB_39390_39485",_"ESB_SAW_40920_40980")_ + 1 x_("BAL_ESB_39390_39485",_"ESB_EZS_39555_39630")_ + 1 x_("BAL_ESB_39390_39485",_"ESB_MLX_40060_40135")_ + 1 x_("BAL_ESB_39390_39485",_"ESB_BAL_40705_40795")_ + 1 x_("BAL_ESB_39390_39485",_"ESB_SZF_39860_39920")_ = 1
mp_c1_VAN_ESB_39455_39560_: 1 x_("VAN_ESB_39455_39560",_"ESB_MQM_40970_41065")_ + 1 x_("VAN_ESB_39455_39560",_"ESB_HTY_40070_40150")_ + 1 x_("VAN_ESB_39455_39560",_"ESB_ADB_39690_39770")_ + 1 x_("VAN_ESB_39455_39560",_"ESB_ECN_40980_41050")_ + 1 x_("VAN_ESB_39455_39560",_"ESB_YEI_40075_40135")_ + 1 x_("VAN_ESB_39455_39560",_"ESB_AYT_40860_40925")_ + 1 x_("VAN_ESB_39455_39560",_"ESB_ECN_40065_40135")_ + 1 x_("VAN_ESB_39455_39560",_"ESB_TZX_40680_40760")_ + 1 x_("VAN_ESB_39455_39560",_"ESB_VAN_40765_40860")_ + 1 x_("VAN_ESB_39455_39560",_"ESB_SAW_39600_39660")_ + 1 x_("VAN_ESB_39455_39560",_"ESB_ADA_39840_39900")_ + 1 x_("VAN_ESB_39455_39560",_"ESB_AJI_40690_40785")_ + 1 x_("VAN_ESB_39455_39560",_"ESB_GNY_39820_39895")_ + 1 x_("VAN_ESB_39455_39560",_"ESB_SAW_40920_40980")_ + 1 x_("VAN_ESB_39455_39560",_"ESB_MLX_40060_40135")_ + 1 x_("VAN_ESB_39455_39560",_"ESB_BAL_40705_40795")_ + 1 x_("VAN_ESB_39455_39560",_"ESB_SZF_39860_39920")_ = 1
mp_c1_ESB_SAW_39480_39540_: 1 x_("ESB_SAW_39480_39540",_"SAW_ASR_39855_39940")_ + 1 x_("ESB_SAW_39480_39540",_"SAW_ADB_39810_39870")_ + 1 x_("ESB_SAW_39480_39540",_"SAW_ADB_40560_40620")_ + 1 x_("ESB_SAW_39480_39540",_"SAW_AYT_39585_39650")_ + 1 x_("ESB_SAW_39480_39540",_"SAW_ESB_39720_39780")_ + 1 x_("ESB_SAW_39480_39540",_"SAW_TZX_40785_40885")_ + 1 x_("ESB_SAW_39480_39540",_"SAW_ESB_40800_40860")_ = 1
mp_c1_TZX_SAW_39480_39585_: 1 x_("TZX_SAW_39480_39585",_"SAW_VAS_41010_41090")_ + 1 x_("TZX_SAW_39480_39585",_"SAW_ASR_39855_39940")_ + 1 x_("TZX_SAW_39480_39585",_"SAW_ADB_39810_39870")_ + 1 x_("TZX_SAW_39480_39585",_"SAW_ADB_40560_40620")_ + 1 x_("TZX_SAW_39480_39585",_"SAW_ESB_39720_39780")_ + 1 x_("TZX_SAW_39480_39585",_"SAW_TZX_40785_40885")_ + 1 x_("TZX_SAW_39480_39585",_"SAW_AYT_41025_41090")_ + 1 x_("TZX_SAW_39480_39585",_"SAW_ESB_40800_40860")_ = 1
mp_c1_ESB_MQM_39530_39625_: 1 x_("ESB_MQM_39530_39625",_"MQM_ESB_39660_39755")_ = 1
mp_c1_ESB_EZS_39555_39630_: 1 x_("ESB_EZS_39555_39630",_"EZS_ESB_39665_39745")_ = 1
mp_c1_NAJ_SAW_39555_39710_: 1 x_("NAJ_SAW_39555_39710",_"SAW_VAS_41010_41090")_ + 1 x_("NAJ_SAW_39555_39710",_"SAW_ASR_39855_39940")_ + 1 x_("NAJ_SAW_39555_39710",_"SAW_ADB_39810_39870")_ + 1 x_("NAJ_SAW_39555_39710",_"SAW_ADB_40560_40620")_ + 1 x_("NAJ_SAW_39555_39710",_"SAW_TZX_40785_40885")_ + 1 x_("NAJ_SAW_39555_39710",_"SAW_AYT_41025_41090")_ + 1 x_("NAJ_SAW_39555_39710",_"SAW_ESB_40800_40860")_ = 1
mp_c1_ESB_ERC_39570_39650_: 1 x_("ESB_ERC_39570_39650",_"ERC_ESB_39685_39765")_ = 1
mp_c1_SAW_AYT_39585_39650_: 1 x_("SAW_AYT_39585_39650",_"AYT_SAW_39690_39755")_ + 1 x_("SAW_AYT_39585_39650",_"AYT_ESB_40960_41025")_ = 1
mp_c1_ESB_SAW_39600_39660_: 1 x_("ESB_SAW_39600_39660",_"SAW_VAS_41010_41090")_ + 1 x_("ESB_SAW_39600_39660",_"SAW_ASR_39855_39940")_ + 1 x_("ESB_SAW_39600_39660",_"SAW_ADB_39810_39870")_ + 1 x_("ESB_SAW_39600_39660",_"SAW_ADB_40560_40620")_ + 1 x_("ESB_SAW_39600_39660",_"SAW_ESB_39720_39780")_ + 1 x_("ESB_SAW_39600_39660",_"SAW_TZX_40785_40885")_ + 1 x_("ESB_SAW_39600_39660",_"SAW_AYT_41025_41090")_ + 1 x_("ESB_SAW_39600_39660",_"SAW_ESB_40800_40860")_ = 1
mp_c1_MQM_ESB_39660_39755_: 1 x_("MQM_ESB_39660_39755",_"ESB_MQM_40970_41065")_ + 1 x_("MQM_ESB_39660_39755",_"ESB_HTY_40070_40150")_ + 1 x_("MQM_ESB_39660_39755",_"ESB_ECN_40980_41050")_ + 1 x_("MQM_ESB_39660_39755",_"ESB_SAW_41040_41100")_ + 1 x_("MQM_ESB_39660_39755",_"ESB_YEI_40075_40135")_ + 1 x_("MQM_ESB_39660_39755",_"ESB_AYT_40860_40925")_ + 1 x_("MQM_ESB_39660_39755",_"ESB_ECN_40065_40135")_ + 1 x_("MQM_ESB_39660_39755",_"ESB_TZX_40680_40760")_ + 1 x_("MQM_ESB_39660_39755",_"ESB_VAN_40765_40860")_ + 1 x_("MQM_ESB_39660_39755",_"ESB_ADA_39840_39900")_ + 1 x_("MQM_ESB_39660_39755",_"ESB_ERC_41010_41090")_ + 1 x_("MQM_ESB_39660_39755",_"ESB_ADB_41130_41210")_ + 1 x_("MQM_ESB_39660_39755",_"ESB_AJI_40690_40785")_ + 1 x_("MQM_ESB_39660_39755",_"ESB_GNY_39820_39895")_ + 1 x_("MQM_ESB_39660_39755",_"ESB_SAW_40920_40980")_ + 1 x_("MQM_ESB_39660_39755",_"ESB_MLX_40060_40135")_ + 1 x_("MQM_ESB_39660_39755",_"ESB_BAL_40705_40795")_ + 1 x_("MQM_ESB_39660_39755",_"ESB_SZF_39860_39920")_ = 1
mp_c1_EZS_ESB_39665_39745_: 1 x_("EZS_ESB_39665_39745",_"ESB_MQM_40970_41065")_ + 1 x_("EZS_ESB_39665_39745",_"ESB_HTY_40070_40150")_ + 1 x_("EZS_ESB_39665_39745",_"ESB_ECN_40980_41050")_ + 1 x_("EZS_ESB_39665_39745",_"ESB_SAW_41040_41100")_ + 1 x_("EZS_ESB_39665_39745",_"ESB_YEI_40075_40135")_ + 1 x_("EZS_ESB_39665_39745",_"ESB_AYT_40860_40925")_ + 1 x_("EZS_ESB_39665_39745",_"ESB_ECN_40065_40135")_ + 1 x_("EZS_ESB_39665_39745",_"ESB_TZX_40680_40760")_ + 1 x_("EZS_ESB_39665_39745",_"ESB_VAN_40765_40860")_ + 1 x_("EZS_ESB_39665_39745",_"ESB_ADA_39840_39900")_ + 1 x_("EZS_ESB_39665_39745",_"ESB_ERC_41010_41090")_ + 1 x_("EZS_ESB_39665_39745",_"ESB_ADB_41130_41210")_ + 1 x_("EZS_ESB_39665_39745",_"ESB_AJI_40690_40785")_ + 1 x_("EZS_ESB_39665_39745",_"ESB_GNY_39820_39895")_ + 1 x_("EZS_ESB_39665_39745",_"ESB_SAW_40920_40980")_ + 1 x_("EZS_ESB_39665_39745",_"ESB_MLX_40060_40135")_ + 1 x_("EZS_ESB_39665_39745",_"ESB_BAL_40705_40795")_ + 1 x_("EZS_ESB_39665_39745",_"ESB_SZF_39860_39920")_ = 1
mp_c1_ERC_ESB_39685_39765_: 1 x_("ERC_ESB_39685_39765",_"ESB_MQM_40970_41065")_ + 1 x_("ERC_ESB_39685_39765",_"ESB_HTY_40070_40150")_ + 1 x_("ERC_ESB_39685_39765",_"ESB_ECN_40980_41050")_ + 1 x_("ERC_ESB_39685_39765",_"ESB_SAW_41040_41100")_ + 1 x_("ERC_ESB_39685_39765",_"ESB_YEI_40075_40135")_ + 1 x_("ERC_ESB_39685_39765",_"ESB_AYT_40860_40925")_ + 1 x_("ERC_ESB_39685_39765",_"ESB_ECN_40065_40135")_ + 1 x_("ERC_ESB_39685_39765",_"ESB_TZX_40680_40760")_ + 1 x_("ERC_ESB_39685_39765",_"ESB_VAN_40765_40860")_ + 1 x_("ERC_ESB_39685_39765",_"ESB_ADA_39840_39900")_ + 1 x_("ERC_ESB_39685_39765",_"ESB_ERC_41010_41090")_ + 1 x_("ERC_ESB_39685_39765",_"ESB_ADB_41130_41210")_ + 1 x_("ERC_ESB_39685_39765",_"ESB_AJI_40690_40785")_ + 1 x_("ERC_ESB_39685_39765",_"ESB_GNY_39820_39895")_ + 1 x_("ERC_ESB_39685_39765",_"ESB_SAW_40920_40980")_ + 1 x_("ERC_ESB_39685_39765",_"ESB_MLX_40060_40135")_ + 1 x_("ERC_ESB_39685_39765",_"ESB_BAL_40705_40795")_ + 1 x_("ERC_ESB_39685_39765",_"ESB_SZF_39860_39920")_ = 1
mp_c1_ESB_ADB_39690_39770_: 1 x_("ESB_ADB_39690_39770",_"ADB_SAW_39905_39965")_ + 1 x_("ESB_ADB_39690_39770",_"ADB_ESB_39805_39880")_ + 1 x_("ESB_ADB_39690_39770",_"ADB_SAW_40655_40715")_ = 1
mp_c1_AYT_SAW_39690_39755_: 1 x_("AYT_SAW_39690_39755",_"SAW_VAS_41010_41090")_ + 1 x_("AYT_SAW_39690_39755",_"SAW_ASR_39855_39940")_ + 1 x_("AYT_SAW_39690_39755",_"SAW_ESB_41160_41220")_ + 1 x_("AYT_SAW_39690_39755",_"SAW_ADB_39810_39870")_ + 1 x_("AYT_SAW_39690_39755",_"SAW_ADB_40560_40620")_ + 1 x_("AYT_SAW_39690_39755",_"SAW_TZX_40785_40885")_ + 1 x_("AYT_SAW_39690_39755",_"SAW_AYT_41025_41090")_ + 1 x_("AYT_SAW_39690_39755",_"SAW_ESB_40800_40860")_ = 1
mp_c1_SAW_ESB_39720_39780_: 1 x_("SAW_ESB_39720_39780",_"ESB_MQM_40970_41065")_ + 1 x_("SAW_ESB_39720_39780",_"ESB_HTY_40070_40150")_ + 1 x_("SAW_ESB_39720_39780",_"ESB_ECN_40980_41050")_ + 1 x_("SAW_ESB_39720_39780",_"ESB_SAW_41040_41100")_ + 1 x_("SAW_ESB_39720_39780",_"ESB_YEI_40075_40135")_ + 1 x_("SAW_ESB_39720_39780",_"ESB_AYT_40860_40925")_ + 1 x_("SAW_ESB_39720_39780",_"ESB_ECN_40065_40135")_ + 1 x_("SAW_ESB_39720_39780",_"ESB_TZX_40680_40760")_ + 1 x_("SAW_ESB_39720_39780",_"ESB_VAN_40765_40860")_ + 1 x_("SAW_ESB_39720_39780",_"ESB_ADA_39840_39900")_ + 1 x_("SAW_ESB_39720_39780",_"ESB_ERC_41010_41090")_ + 1 x_("SAW_ESB_39720_39780",_"ESB_ADB_41130_41210")_ + 1 x_("SAW_ESB_39720_39780",_"ESB_AJI_40690_40785")_ + 1 x_("SAW_ESB_39720_39780",_"ESB_GNY_39820_39895")_ + 1 x_("SAW_ESB_39720_39780",_"ESB_SAW_40920_40980")_ + 1 x_("SAW_ESB_39720_39780",_"ESB_MLX_40060_40135")_ + 1 x_("SAW_ESB_39720_39780",_"ESB_BAL_40705_40795")_ + 1 x_("SAW_ESB_39720_39780",_"ESB_SZF_39860_39920")_ = 1
mp_c1_ADB_ESB_39805_39880_: 1 x_("ADB_ESB_39805_39880",_"ESB_MQM_40970_41065")_ + 1 x_("ADB_ESB_39805_39880",_"ESB_HTY_40070_40150")_ + 1 x_("ADB_ESB_39805_39880",_"ESB_ECN_40980_41050")_ + 1 x_("ADB_ESB_39805_39880",_"ESB_SAW_41040_41100")_ + 1 x_("ADB_ESB_39805_39880",_"ESB_YEI_40075_40135")_ + 1 x_("ADB_ESB_39805_39880",_"ESB_AYT_40860_40925")_ + 1 x_("ADB_ESB_39805_39880",_"ESB_ECN_40065_40135")_ + 1 x_("ADB_ESB_39805_39880",_"ESB_TZX_40680_40760")_ + 1 x_("ADB_ESB_39805_39880",_"ESB_VAN_40765_40860")_ + 1 x_("ADB_ESB_39805_39880",_"ESB_ERC_41010_41090")_ + 1 x_("ADB_ESB_39805_39880",_"ESB_ADB_41130_41210")_ + 1 x_("ADB_ESB_39805_39880",_"ESB_SZF_41300_41360")_ + 1 x_("ADB_ESB_39805_39880",_"ESB_AJI_40690_40785")_ + 1 x_("ADB_ESB_39805_39880",_"ESB_GNY_41260_41335")_ + 1 x_("ADB_ESB_39805_39880",_"ESB_ADA_41280_41340")_ + 1 x_("ADB_ESB_39805_39880",_"ESB_SAW_40920_40980")_ + 1 x_("ADB_ESB_39805_39880",_"ESB_MLX_40060_40135")_ + 1 x_("ADB_ESB_39805_39880",_"ESB_BAL_40705_40795")_ = 1
mp_c1_SAW_ADB_39810_39870_: 1 x_("SAW_ADB_39810_39870",_"ADB_ESB_41245_41320")_ + 1 x_("SAW_ADB_39810_39870",_"ADB_SAW_39905_39965")_ + 1 x_("SAW_ADB_39810_39870",_"ADB_SAW_40655_40715")_ = 1
mp_c1_ESB_GNY_39820_39895_: 1 x_("ESB_GNY_39820_39895",_"GNY_ESB_39930_40010")_ = 1
mp_c1_ESB_ADA_39840_39900_: 1 x_("ESB_ADA_39840_39900",_"ADA_ESB_39940_40005")_ = 1
mp_c1_SAW_ASR_39855_39940_: 1 x_("SAW_ASR_39855_39940",_"ASR_SAW_39975_40065")_ = 1
mp_c1_ESB_SZF_39860_39920_: 1 x_("ESB_SZF_39860_39920",_"SZF_ESB_39955_40015")_ = 1
mp_c1_ADB_SAW_39905_39965_: 1 x_("ADB_SAW_39905_39965",_"SAW_VAS_41010_41090")_ + 1 x_("ADB_SAW_39905_39965",_"SAW_ESB_41160_41220")_ + 1 x_("ADB_SAW_39905_39965",_"SAW_ADB_40560_40620")_ + 1 x_("ADB_SAW_39905_39965",_"SAW_ADB_41250_41310")_ + 1 x_("ADB_SAW_39905_39965",_"SAW_TZX_40785_40885")_ + 1 x_("ADB_SAW_39905_39965",_"SAW_KYA_41310_41380")_ + 1 x_("ADB_SAW_39905_39965",_"SAW_AYT_41025_41090")_ + 1 x_("ADB_SAW_39905_39965",_"SAW_ASR_41295_41380")_ + 1 x_("ADB_SAW_39905_39965",_"SAW_ESB_40800_40860")_ = 1
mp_c1_GNY_ESB_39930_40010_: 1 x_("GNY_ESB_39930_40010",_"ESB_MQM_40970_41065")_ + 1 x_("GNY_ESB_39930_40010",_"ESB_HTY_40070_40150")_ + 1 x_("GNY_ESB_39930_40010",_"ESB_ECN_40980_41050")_ + 1 x_("GNY_ESB_39930_40010",_"ESB_SAW_41040_41100")_ + 1 x_("GNY_ESB_39930_40010",_"ESB_YEI_40075_40135")_ + 1 x_("GNY_ESB_39930_40010",_"ESB_AYT_40860_40925")_ + 1 x_("GNY_ESB_39930_40010",_"ESB_ECN_40065_40135")_ + 1 x_("GNY_ESB_39930_40010",_"ESB_TZX_40680_40760")_ + 1 x_("GNY_ESB_39930_40010",_"ESB_VAN_40765_40860")_ + 1 x_("GNY_ESB_39930_40010",_"ESB_ERC_41010_41090")_ + 1 x_("GNY_ESB_39930_40010",_"ESB_ADB_41130_41210")_ + 1 x_("GNY_ESB_39930_40010",_"ESB_SZF_41300_41360")_ + 1 x_("GNY_ESB_39930_40010",_"ESB_AJI_40690_40785")_ + 1 x_("GNY_ESB_39930_40010",_"ESB_GNY_41260_41335")_ + 1 x_("GNY_ESB_39930_40010",_"ESB_ADA_41280_41340")_ + 1 x_("GNY_ESB_39930_40010",_"ESB_SAW_40920_40980")_ + 1 x_("GNY_ESB_39930_40010",_"ESB_MLX_40060_40135")_ + 1 x_("GNY_ESB_39930_40010",_"ESB_BAL_40705_40795")_ = 1
mp_c1_ADA_ESB_39940_40005_: 1 x_("ADA_ESB_39940_40005",_"ESB_MQM_40970_41065")_ + 1 x_("ADA_ESB_39940_40005",_"ESB_HTY_40070_40150")_ + 1 x_("ADA_ESB_39940_40005",_"ESB_ECN_40980_41050")_ + 1 x_("ADA_ESB_39940_40005",_"ESB_SAW_41040_41100")_ + 1 x_("ADA_ESB_39940_40005",_"ESB_YEI_40075_40135")_ + 1 x_("ADA_ESB_39940_40005",_"ESB_AYT_40860_40925")_ + 1 x_("ADA_ESB_39940_40005",_"ESB_ECN_40065_40135")_ + 1 x_("ADA_ESB_39940_40005",_"ESB_TZX_40680_40760")_ + 1 x_("ADA_ESB_39940_40005",_"ESB_VAN_40765_40860")_ + 1 x_("ADA_ESB_39940_40005",_"ESB_ERC_41010_41090")_ + 1 x_("ADA_ESB_39940_40005",_"ESB_ADB_41130_41210")_ + 1 x_("ADA_ESB_39940_40005",_"ESB_SZF_41300_41360")_ + 1 x_("ADA_ESB_39940_40005",_"ESB_AJI_40690_40785")_ + 1 x_("ADA_ESB_39940_40005",_"ESB_GNY_41260_41335")_ + 1 x_("ADA_ESB_39940_40005",_"ESB_ADA_41280_41340")_ + 1 x_("ADA_ESB_39940_40005",_"ESB_SAW_40920_40980")_ + 1 x_("ADA_ESB_39940_40005",_"ESB_MLX_40060_40135")_ + 1 x_("ADA_ESB_39940_40005",_"ESB_BAL_40705_40795")_ = 1
mp_c1_SZF_ESB_39955_40015_: 1 x_("SZF_ESB_39955_40015",_"ESB_MQM_40970_41065")_ + 1 x_("SZF_ESB_39955_40015",_"ESB_HTY_40070_40150")_ + 1 x_("SZF_ESB_39955_40015",_"ESB_ECN_40980_41050")_ + 1 x_("SZF_ESB_39955_40015",_"ESB_SAW_41040_41100")_ + 1 x_("SZF_ESB_39955_40015",_"ESB_YEI_40075_40135")_ + 1 x_("SZF_ESB_39955_40015",_"ESB_AYT_40860_40925")_ + 1 x_("SZF_ESB_39955_40015",_"ESB_ECN_40065_40135")_ + 1 x_("SZF_ESB_39955_40015",_"ESB_TZX_40680_40760")_ + 1 x_("SZF_ESB_39955_40015",_"ESB_VAN_40765_40860")_ + 1 x_("SZF_ESB_39955_40015",_"ESB_ERC_41010_41090")_ + 1 x_("SZF_ESB_39955_40015",_"ESB_ADB_41130_41210")_ + 1 x_("SZF_ESB_39955_40015",_"ESB_SZF_41300_41360")_ + 1 x_("SZF_ESB_39955_40015",_"ESB_AJI_40690_40785")_ + 1 x_("SZF_ESB_39955_40015",_"ESB_GNY_41260_41335")_ + 1 x_("SZF_ESB_39955_40015",_"ESB_ADA_41280_41340")_ + 1 x_("SZF_ESB_39955_40015",_"ESB_SAW_40920_40980")_ + 1 x_("SZF_ESB_39955_40015",_"ESB_MLX_40060_40135")_ + 1 x_("SZF_ESB_39955_40015",_"ESB_BAL_40705_40795")_ = 1
mp_c1_ASR_SAW_39975_40065_: 1 x_("ASR_SAW_39975_40065",_"SAW_VAS_41010_41090")_ + 1 x_("ASR_SAW_39975_40065",_"SAW_ESB_41160_41220")_ + 1 x_("ASR_SAW_39975_40065",_"SAW_ADB_40560_40620")_ + 1 x_("ASR_SAW_39975_40065",_"SAW_ADB_41250_41310")_ + 1 x_("ASR_SAW_39975_40065",_"SAW_TZX_40785_40885")_ + 1 x_("ASR_SAW_39975_40065",_"SAW_KYA_41310_41380")_ + 1 x_("ASR_SAW_39975_40065",_"SAW_AYT_41025_41090")_ + 1 x_("ASR_SAW_39975_40065",_"SAW_ASR_41295_41380")_ + 1 x_("ASR_SAW_39975_40065",_"SAW_ESB_40800_40860")_ = 1
mp_c1_ESB_MLX_40060_40135_: 1 x_("ESB_MLX_40060_40135",_"MLX_ESB_40560_40635")_ = 1
mp_c1_ESB_ECN_40065_40135_: 1 x_("ESB_ECN_40065_40135",_"ECN_ESB_40560_40630")_ + 1 x_("ESB_ECN_40065_40135",_"ECN_HTY_41160_41225")_ + 1 x_("ESB_ECN_40065_40135",_"ECN_ESB_41375_41445")_ = 1
mp_c1_ESB_HTY_40070_40150_: 1 x_("ESB_HTY_40070_40150",_"HTY_ECN_41265_41330")_ + 1 x_("ESB_HTY_40070_40150",_"HTY_ESB_40560_40635")_ = 1
mp_c1_ESB_YEI_40075_40135_: 1 x_("ESB_YEI_40075_40135",_"YEI_ESB_40560_40620")_ = 1
mp_c1_SAW_ADB_40560_40620_: 1 x_("SAW_ADB_40560_40620",_"ADB_ESB_41245_41320")_ + 1 x_("SAW_ADB_40560_40620",_"ADB_SAW_41345_41405")_ + 1 x_("SAW_ADB_40560_40620",_"ADB_SAW_40655_40715")_ + 1 x_("SAW_ADB_40560_40620",_"t")_ = 1
mp_c1_ECN_ESB_40560_40630_: 1 x_("ECN_ESB_40560_40630",_"ESB_MQM_40970_41065")_ + 1 x_("ECN_ESB_40560_40630",_"ESB_ECN_40980_41050")_ + 1 x_("ECN_ESB_40560_40630",_"ESB_ECN_41505_41575")_ + 1 x_("ECN_ESB_40560_40630",_"ESB_SAW_41040_41100")_ + 1 x_("ECN_ESB_40560_40630",_"ESB_AYT_40860_40925")_ + 1 x_("ECN_ESB_40560_40630",_"ESB_TZX_40680_40760")_ + 1 x_("ECN_ESB_40560_40630",_"ESB_VAN_40765_40860")_ + 1 x_("ECN_ESB_40560_40630",_"ESB_ERC_41010_41090")_ + 1 x_("ECN_ESB_40560_40630",_"ESB_ADB_41130_41210")_ + 1 x_("ECN_ESB_40560_40630",_"ESB_SZF_41300_41360")_ + 1 x_("ECN_ESB_40560_40630",_"ESB_MLX_41500_41575")_ + 1 x_("ECN_ESB_40560_40630",_"ESB_AJI_40690_40785")_ + 1 x_("ECN_ESB_40560_40630",_"ESB_GNY_41260_41335")_ + 1 x_("ECN_ESB_40560_40630",_"ESB_ADA_41280_41340")_ + 1 x_("ECN_ESB_40560_40630",_"ESB_HTY_41510_41590")_ + 1 x_("ECN_ESB_40560_40630",_"ESB_SAW_40920_40980")_ + 1 x_("ECN_ESB_40560_40630",_"ESB_BAL_40705_40795")_ + 1 x_("ECN_ESB_40560_40630",_"ESB_YEI_41515_41575")_ + 1 x_("ECN_ESB_40560_40630",_"t")_ = 1
mp_c1_YEI_ESB_40560_40620_: 1 x_("YEI_ESB_40560_40620",_"ESB_MQM_40970_41065")_ + 1 x_("YEI_ESB_40560_40620",_"ESB_ECN_40980_41050")_ + 1 x_("YEI_ESB_40560_40620",_"ESB_ECN_41505_41575")_ + 1 x_("YEI_ESB_40560_40620",_"ESB_SAW_41040_41100")_ + 1 x_("YEI_ESB_40560_40620",_"ESB_AYT_40860_40925")_ + 1 x_("YEI_ESB_40560_40620",_"ESB_TZX_40680_40760")_ + 1 x_("YEI_ESB_40560_40620",_"ESB_VAN_40765_40860")_ + 1 x_("YEI_ESB_40560_40620",_"ESB_ERC_41010_41090")_ + 1 x_("YEI_ESB_40560_40620",_"ESB_ADB_41130_41210")_ + 1 x_("YEI_ESB_40560_40620",_"ESB_SZF_41300_41360")_ + 1 x_("YEI_ESB_40560_40620",_"ESB_MLX_41500_41575")_ + 1 x_("YEI_ESB_40560_40620",_"ESB_AJI_40690_40785")_ + 1 x_("YEI_ESB_40560_40620",_"ESB_GNY_41260_41335")_ + 1 x_("YEI_ESB_40560_40620",_"ESB_ADA_41280_41340")_ + 1 x_("YEI_ESB_40560_40620",_"ESB_HTY_41510_41590")_ + 1 x_("YEI_ESB_40560_40620",_"ESB_SAW_40920_40980")_ + 1 x_("YEI_ESB_40560_40620",_"ESB_BAL_40705_40795")_ + 1 x_("YEI_ESB_40560_40620",_"ESB_YEI_41515_41575")_ + 1 x_("YEI_ESB_40560_40620",_"t")_ = 1
mp_c1_MLX_ESB_40560_40635_: 1 x_("MLX_ESB_40560_40635",_"ESB_MQM_40970_41065")_ + 1 x_("MLX_ESB_40560_40635",_"ESB_ECN_40980_41050")_ + 1 x_("MLX_ESB_40560_40635",_"ESB_ECN_41505_41575")_ + 1 x_("MLX_ESB_40560_40635",_"ESB_SAW_41040_41100")_ + 1 x_("MLX_ESB_40560_40635",_"ESB_AYT_40860_40925")_ + 1 x_("MLX_ESB_40560_40635",_"ESB_TZX_40680_40760")_ + 1 x_("MLX_ESB_40560_40635",_"ESB_VAN_40765_40860")_ + 1 x_("MLX_ESB_40560_40635",_"ESB_ERC_41010_41090")_ + 1 x_("MLX_ESB_40560_40635",_"ESB_ADB_41130_41210")_ + 1 x_("MLX_ESB_40560_40635",_"ESB_SZF_41300_41360")_ + 1 x_("MLX_ESB_40560_40635",_"ESB_MLX_41500_41575")_ + 1 x_("MLX_ESB_40560_40635",_"ESB_AJI_40690_40785")_ + 1 x_("MLX_ESB_40560_40635",_"ESB_GNY_41260_41335")_ + 1 x_("MLX_ESB_40560_40635",_"ESB_ADA_41280_41340")_ + 1 x_("MLX_ESB_40560_40635",_"ESB_HTY_41510_41590")_ + 1 x_("MLX_ESB_40560_40635",_"ESB_SAW_40920_40980")_ + 1 x_("MLX_ESB_40560_40635",_"ESB_BAL_40705_40795")_ + 1 x_("MLX_ESB_40560_40635",_"ESB_YEI_41515_41575")_ + 1 x_("MLX_ESB_40560_40635",_"t")_ = 1
mp_c1_HTY_ESB_40560_40635_: 1 x_("HTY_ESB_40560_40635",_"ESB_MQM_40970_41065")_ + 1 x_("HTY_ESB_40560_40635",_"ESB_ECN_40980_41050")_ + 1 x_("HTY_ESB_40560_40635",_"ESB_ECN_41505_41575")_ + 1 x_("HTY_ESB_40560_40635",_"ESB_SAW_41040_41100")_ + 1 x_("HTY_ESB_40560_40635",_"ESB_AYT_40860_40925")_ + 1 x_("HTY_ESB_40560_40635",_"ESB_TZX_40680_40760")_ + 1 x_("HTY_ESB_40560_40635",_"ESB_VAN_40765_40860")_ + 1 x_("HTY_ESB_40560_40635",_"ESB_ERC_41010_41090")_ + 1 x_("HTY_ESB_40560_40635",_"ESB_ADB_41130_41210")_ + 1 x_("HTY_ESB_40560_40635",_"ESB_SZF_41300_41360")_ + 1 x_("HTY_ESB_40560_40635",_"ESB_MLX_41500_41575")_ + 1 x_("HTY_ESB_40560_40635",_"ESB_AJI_40690_40785")_ + 1 x_("HTY_ESB_40560_40635",_"ESB_GNY_41260_41335")_ + 1 x_("HTY_ESB_40560_40635",_"ESB_ADA_41280_41340")_ + 1 x_("HTY_ESB_40560_40635",_"ESB_HTY_41510_41590")_ + 1 x_("HTY_ESB_40560_40635",_"ESB_SAW_40920_40980")_ + 1 x_("HTY_ESB_40560_40635",_"ESB_BAL_40705_40795")_ + 1 x_("HTY_ESB_40560_40635",_"ESB_YEI_41515_41575")_ + 1 x_("HTY_ESB_40560_40635",_"t")_ = 1
mp_c1_ADB_SAW_40655_40715_: 1 x_("ADB_SAW_40655_40715",_"SAW_VAS_41010_41090")_ + 1 x_("ADB_SAW_40655_40715",_"SAW_ESB_41160_41220")_ + 1 x_("ADB_SAW_40655_40715",_"SAW_ADB_41250_41310")_ + 1 x_("ADB_SAW_40655_40715",_"SAW_TZX_40785_40885")_ + 1 x_("ADB_SAW_40655_40715",_"SAW_KYA_41310_41380")_ + 1 x_("ADB_SAW_40655_40715",_"SAW_AYT_41025_41090")_ + 1 x_("ADB_SAW_40655_40715",_"SAW_ASR_41295_41380")_ + 1 x_("ADB_SAW_40655_40715",_"SAW_ESB_40800_40860")_ + 1 x_("ADB_SAW_40655_40715",_"t")_ = 1
mp_c1_ESB_TZX_40680_40760_: 1 x_("ESB_TZX_40680_40760",_"TZX_ESB_40795_40875")_ + 1 x_("ESB_TZX_40680_40760",_"TZX_SAW_40920_41025")_ + 1 x_("ESB_TZX_40680_40760",_"t")_ = 1
mp_c1_ESB_AJI_40690_40785_: 1 x_("ESB_AJI_40690_40785",_"AJI_ESB_40820_40925")_ + 1 x_("ESB_AJI_40690_40785",_"t")_ = 1
mp_c1_ESB_BAL_40705_40795_: 1 x_("ESB_BAL_40705_40795",_"BAL_ESB_40830_40925")_ + 1 x_("ESB_BAL_40705_40795",_"t")_ = 1
mp_c1_ESB_VAN_40765_40860_: 1 x_("ESB_VAN_40765_40860",_"VAN_ESB_40895_41000")_ + 1 x_("ESB_VAN_40765_40860",_"t")_ = 1
mp_c1_SAW_TZX_40785_40885_: 1 x_("SAW_TZX_40785_40885",_"TZX_SAW_40920_41025")_ + 1 x_("SAW_TZX_40785_40885",_"t")_ = 1
mp_c1_TZX_ESB_40795_40875_: 1 x_("TZX_ESB_40795_40875",_"ESB_MQM_40970_41065")_ + 1 x_("TZX_ESB_40795_40875",_"ESB_ECN_40980_41050")_ + 1 x_("TZX_ESB_40795_40875",_"ESB_ECN_41505_41575")_ + 1 x_("TZX_ESB_40795_40875",_"ESB_SAW_41040_41100")_ + 1 x_("TZX_ESB_40795_40875",_"ESB_ERC_41010_41090")_ + 1 x_("TZX_ESB_40795_40875",_"ESB_ADB_41130_41210")_ + 1 x_("TZX_ESB_40795_40875",_"ESB_SZF_41300_41360")_ + 1 x_("TZX_ESB_40795_40875",_"ESB_MLX_41500_41575")_ + 1 x_("TZX_ESB_40795_40875",_"ESB_GNY_41260_41335")_ + 1 x_("TZX_ESB_40795_40875",_"ESB_ADA_41280_41340")_ + 1 x_("TZX_ESB_40795_40875",_"ESB_HTY_41510_41590")_ + 1 x_("TZX_ESB_40795_40875",_"ESB_SAW_40920_40980")_ + 1 x_("TZX_ESB_40795_40875",_"ESB_YEI_41515_41575")_ + 1 x_("TZX_ESB_40795_40875",_"t")_ = 1
mp_c1_SAW_ESB_40800_40860_: 1 x_("SAW_ESB_40800_40860",_"ESB_MQM_40970_41065")_ + 1 x_("SAW_ESB_40800_40860",_"ESB_ECN_40980_41050")_ + 1 x_("SAW_ESB_40800_40860",_"ESB_ECN_41505_41575")_ + 1 x_("SAW_ESB_40800_40860",_"ESB_SAW_41040_41100")_ + 1 x_("SAW_ESB_40800_40860",_"ESB_ERC_41010_41090")_ + 1 x_("SAW_ESB_40800_40860",_"ESB_ADB_41130_41210")_ + 1 x_("SAW_ESB_40800_40860",_"ESB_SZF_41300_41360")_ + 1 x_("SAW_ESB_40800_40860",_"ESB_MLX_41500_41575")_ + 1 x_("SAW_ESB_40800_40860",_"ESB_GNY_41260_41335")_ + 1 x_("SAW_ESB_40800_40860",_"ESB_ADA_41280_41340")_ + 1 x_("SAW_ESB_40800_40860",_"ESB_HTY_41510_41590")_ + 1 x_("SAW_ESB_40800_40860",_"ESB_SAW_40920_40980")_ + 1 x_("SAW_ESB_40800_40860",_"ESB_YEI_41515_41575")_ + 1 x_("SAW_ESB_40800_40860",_"t")_ = 1
mp_c1_AJI_ESB_40820_40925_: 1 x_("AJI_ESB_40820_40925",_"ESB_MQM_40970_41065")_ + 1 x_("AJI_ESB_40820_40925",_"ESB_ECN_40980_41050")_ + 1 x_("AJI_ESB_40820_40925",_"ESB_ECN_41505_41575")_ + 1 x_("AJI_ESB_40820_40925",_"ESB_SAW_41040_41100")_ + 1 x_("AJI_ESB_40820_40925",_"ESB_ERC_41010_41090")_ + 1 x_("AJI_ESB_40820_40925",_"ESB_ADB_41130_41210")_ + 1 x_("AJI_ESB_40820_40925",_"ESB_SZF_41300_41360")_ + 1 x_("AJI_ESB_40820_40925",_"ESB_MLX_41500_41575")_ + 1 x_("AJI_ESB_40820_40925",_"ESB_GNY_41260_41335")_ + 1 x_("AJI_ESB_40820_40925",_"ESB_ADA_41280_41340")_ + 1 x_("AJI_ESB_40820_40925",_"ESB_HTY_41510_41590")_ + 1 x_("AJI_ESB_40820_40925",_"ESB_YEI_41515_41575")_ + 1 x_("AJI_ESB_40820_40925",_"t")_ = 1
mp_c1_BAL_ESB_40830_40925_: 1 x_("BAL_ESB_40830_40925",_"ESB_MQM_40970_41065")_ + 1 x_("BAL_ESB_40830_40925",_"ESB_ECN_40980_41050")_ + 1 x_("BAL_ESB_40830_40925",_"ESB_ECN_41505_41575")_ + 1 x_("BAL_ESB_40830_40925",_"ESB_SAW_41040_41100")_ + 1 x_("BAL_ESB_40830_40925",_"ESB_ERC_41010_41090")_ + 1 x_("BAL_ESB_40830_40925",_"ESB_ADB_41130_41210")_ + 1 x_("BAL_ESB_40830_40925",_"ESB_SZF_41300_41360")_ + 1 x_("BAL_ESB_40830_40925",_"ESB_MLX_41500_41575")_ + 1 x_("BAL_ESB_40830_40925",_"ESB_GNY_41260_41335")_ + 1 x_("BAL_ESB_40830_40925",_"ESB_ADA_41280_41340")_ + 1 x_("BAL_ESB_40830_40925",_"ESB_HTY_41510_41590")_ + 1 x_("BAL_ESB_40830_40925",_"ESB_YEI_41515_41575")_ + 1 x_("BAL_ESB_40830_40925",_"t")_ = 1
mp_c1_ESB_AYT_40860_40925_: 1 x_("ESB_AYT_40860_40925",_"AYT_ESB_40960_41025")_ + 1 x_("ESB_AYT_40860_40925",_"AYT_SAW_41130_41195")_ + 1 x_("ESB_AYT_40860_40925",_"t")_ = 1
mp_c1_VAN_ESB_40895_41000_: 1 x_("VAN_ESB_40895_41000",_"ESB_ECN_41505_41575")_ + 1 x_("VAN_ESB_40895_41000",_"ESB_SAW_41040_41100")_ + 1 x_("VAN_ESB_40895_41000",_"ESB_ADB_41130_41210")_ + 1 x_("VAN_ESB_40895_41000",_"ESB_SZF_41300_41360")_ + 1 x_("VAN_ESB_40895_41000",_"ESB_MLX_41500_41575")_ + 1 x_("VAN_ESB_40895_41000",_"ESB_GNY_41260_41335")_ + 1 x_("VAN_ESB_40895_41000",_"ESB_ADA_41280_41340")_ + 1 x_("VAN_ESB_40895_41000",_"ESB_HTY_41510_41590")_ + 1 x_("VAN_ESB_40895_41000",_"ESB_YEI_41515_41575")_ + 1 x_("VAN_ESB_40895_41000",_"t")_ = 1
mp_c1_ESB_SAW_40920_40980_: 1 x_("ESB_SAW_40920_40980",_"SAW_ESB_41160_41220")_ + 1 x_("ESB_SAW_40920_40980",_"SAW_ADB_41250_41310")_ + 1 x_("ESB_SAW_40920_40980",_"SAW_KYA_41310_41380")_ + 1 x_("ESB_SAW_40920_40980",_"SAW_AYT_41025_41090")_ + 1 x_("ESB_SAW_40920_40980",_"SAW_ASR_41295_41380")_ + 1 x_("ESB_SAW_40920_40980",_"t")_ = 1
mp_c1_TZX_SAW_40920_41025_: 1 x_("TZX_SAW_40920_41025",_"SAW_ESB_41160_41220")_ + 1 x_("TZX_SAW_40920_41025",_"SAW_ADB_41250_41310")_ + 1 x_("TZX_SAW_40920_41025",_"SAW_KYA_41310_41380")_ + 1 x_("TZX_SAW_40920_41025",_"SAW_ASR_41295_41380")_ + 1 x_("TZX_SAW_40920_41025",_"t")_ = 1
mp_c1_AYT_ESB_40960_41025_: 1 x_("AYT_ESB_40960_41025",_"ESB_ECN_41505_41575")_ + 1 x_("AYT_ESB_40960_41025",_"ESB_ADB_41130_41210")_ + 1 x_("AYT_ESB_40960_41025",_"ESB_SZF_41300_41360")_ + 1 x_("AYT_ESB_40960_41025",_"ESB_MLX_41500_41575")_ + 1 x_("AYT_ESB_40960_41025",_"ESB_GNY_41260_41335")_ + 1 x_("AYT_ESB_40960_41025",_"ESB_ADA_41280_41340")_ + 1 x_("AYT_ESB_40960_41025",_"ESB_HTY_41510_41590")_ + 1 x_("AYT_ESB_40960_41025",_"ESB_YEI_41515_41575")_ + 1 x_("AYT_ESB_40960_41025",_"t")_ = 1
mp_c1_ESB_MQM_40970_41065_: 1 x_("ESB_MQM_40970_41065",_"MQM_ESB_41100_41195")_ + 1 x_("ESB_MQM_40970_41065",_"t")_ = 1
mp_c1_ESB_ECN_40980_41050_: 1 x_("ESB_ECN_40980_41050",_"ECN_HTY_41160_41225")_ + 1 x_("ESB_ECN_40980_41050",_"ECN_ESB_41375_41445")_ + 1 x_("ESB_ECN_40980_41050",_"t")_ = 1
mp_c1_ESB_ERC_41010_41090_: 1 x_("ESB_ERC_41010_41090",_"ERC_ESB_41125_41205")_ + 1 x_("ESB_ERC_41010_41090",_"t")_ = 1
mp_c1_SAW_VAS_41010_41090_: 1 x_("SAW_VAS_41010_41090",_"VAS_SAW_41125_41205")_ + 1 x_("SAW_VAS_41010_41090",_"t")_ = 1
mp_c1_SAW_AYT_41025_41090_: 1 x_("SAW_AYT_41025_41090",_"AYT_SAW_41130_41195")_ + 1 x_("SAW_AYT_41025_41090",_"t")_ = 1
mp_c1_ESB_SAW_41040_41100_: 1 x_("ESB_SAW_41040_41100",_"SAW_ESB_41160_41220")_ + 1 x_("ESB_SAW_41040_41100",_"SAW_ADB_41250_41310")_ + 1 x_("ESB_SAW_41040_41100",_"SAW_KYA_41310_41380")_ + 1 x_("ESB_SAW_41040_41100",_"SAW_ASR_41295_41380")_ + 1 x_("ESB_SAW_41040_41100",_"t")_ = 1
mp_c1_MQM_ESB_41100_41195_: 1 x_("MQM_ESB_41100_41195",_"ESB_ECN_41505_41575")_ + 1 x_("MQM_ESB_41100_41195",_"ESB_SZF_41300_41360")_ + 1 x_("MQM_ESB_41100_41195",_"ESB_MLX_41500_41575")_ + 1 x_("MQM_ESB_41100_41195",_"ESB_GNY_41260_41335")_ + 1 x_("MQM_ESB_41100_41195",_"ESB_ADA_41280_41340")_ + 1 x_("MQM_ESB_41100_41195",_"ESB_HTY_41510_41590")_ + 1 x_("MQM_ESB_41100_41195",_"ESB_YEI_41515_41575")_ + 1 x_("MQM_ESB_41100_41195",_"t")_ = 1
mp_c1_ERC_ESB_41125_41205_: 1 x_("ERC_ESB_41125_41205",_"ESB_ECN_41505_41575")_ + 1 x_("ERC_ESB_41125_41205",_"ESB_SZF_41300_41360")_ + 1 x_("ERC_ESB_41125_41205",_"ESB_MLX_41500_41575")_ + 1 x_("ERC_ESB_41125_41205",_"ESB_GNY_41260_41335")_ + 1 x_("ERC_ESB_41125_41205",_"ESB_ADA_41280_41340")_ + 1 x_("ERC_ESB_41125_41205",_"ESB_HTY_41510_41590")_ + 1 x_("ERC_ESB_41125_41205",_"ESB_YEI_41515_41575")_ + 1 x_("ERC_ESB_41125_41205",_"t")_ = 1
mp_c1_VAS_SAW_41125_41205_: 1 x_("VAS_SAW_41125_41205",_"SAW_ADB_41250_41310")_ + 1 x_("VAS_SAW_41125_41205",_"SAW_KYA_41310_41380")_ + 1 x_("VAS_SAW_41125_41205",_"SAW_ASR_41295_41380")_ + 1 x_("VAS_SAW_41125_41205",_"t")_ = 1
mp_c1_ESB_ADB_41130_41210_: 1 x_("ESB_ADB_41130_41210",_"ADB_ESB_41245_41320")_ + 1 x_("ESB_ADB_41130_41210",_"ADB_SAW_41345_41405")_ + 1 x_("ESB_ADB_41130_41210",_"t")_ = 1
mp_c1_AYT_SAW_41130_41195_: 1 x_("AYT_SAW_41130_41195",_"SAW_ADB_41250_41310")_ + 1 x_("AYT_SAW_41130_41195",_"SAW_KYA_41310_41380")_ + 1 x_("AYT_SAW_41130_41195",_"SAW_ASR_41295_41380")_ + 1 x_("AYT_SAW_41130_41195",_"t")_ = 1
mp_c1_SAW_ESB_41160_41220_: 1 x_("SAW_ESB_41160_41220",_"ESB_ECN_41505_41575")_ + 1 x_("SAW_ESB_41160_41220",_"ESB_SZF_41300_41360")_ + 1 x_("SAW_ESB_41160_41220",_"ESB_MLX_41500_41575")_ + 1 x_("SAW_ESB_41160_41220",_"ESB_GNY_41260_41335")_ + 1 x_("SAW_ESB_41160_41220",_"ESB_ADA_41280_41340")_ + 1 x_("SAW_ESB_41160_41220",_"ESB_HTY_41510_41590")_ + 1 x_("SAW_ESB_41160_41220",_"ESB_YEI_41515_41575")_ + 1 x_("SAW_ESB_41160_41220",_"t")_ = 1
mp_c1_ECN_HTY_41160_41225_: 1 x_("ECN_HTY_41160_41225",_"HTY_ECN_41265_41330")_ + 1 x_("ECN_HTY_41160_41225",_"t")_ = 1
mp_c1_ADB_ESB_41245_41320_: 1 x_("ADB_ESB_41245_41320",_"ESB_ECN_41505_41575")_ + 1 x_("ADB_ESB_41245_41320",_"ESB_MLX_41500_41575")_ + 1 x_("ADB_ESB_41245_41320",_"ESB_HTY_41510_41590")_ + 1 x_("ADB_ESB_41245_41320",_"ESB_YEI_41515_41575")_ + 1 x_("ADB_ESB_41245_41320",_"t")_ = 1
mp_c1_SAW_ADB_41250_41310_: 1 x_("SAW_ADB_41250_41310",_"ADB_SAW_41345_41405")_ + 1 x_("SAW_ADB_41250_41310",_"t")_ = 1
mp_c1_ESB_GNY_41260_41335_: 1 x_("ESB_GNY_41260_41335",_"GNY_ESB_41370_41450")_ + 1 x_("ESB_GNY_41260_41335",_"t")_ = 1
mp_c1_HTY_ECN_41265_41330_: 1 x_("HTY_ECN_41265_41330",_"ECN_ESB_41375_41445")_ + 1 x_("HTY_ECN_41265_41330",_"t")_ = 1
mp_c1_ESB_ADA_41280_41340_: 1 x_("ESB_ADA_41280_41340",_"ADA_ESB_41380_41445")_ + 1 x_("ESB_ADA_41280_41340",_"t")_ = 1
mp_c1_SAW_ASR_41295_41380_: 1 x_("SAW_ASR_41295_41380",_"ASR_SAW_41415_41505")_ + 1 x_("SAW_ASR_41295_41380",_"t")_ = 1
mp_c1_ESB_SZF_41300_41360_: 1 x_("ESB_SZF_41300_41360",_"SZF_ESB_41395_41455")_ + 1 x_("ESB_SZF_41300_41360",_"t")_ = 1
mp_c1_SAW_KYA_41310_41380_: 1 x_("SAW_KYA_41310_41380",_"KYA_SAW_41415_41485")_ + 1 x_("SAW_KYA_41310_41380",_"t")_ = 1
mp_c1_ADB_SAW_41345_41405_: 1 x_("ADB_SAW_41345_41405",_"t")_ = 1
mp_c1_GNY_ESB_41370_41450_: 1 x_("GNY_ESB_41370_41450",_"ESB_ECN_41505_41575")_ + 1 x_("GNY_ESB_41370_41450",_"ESB_MLX_41500_41575")_ + 1 x_("GNY_ESB_41370_41450",_"ESB_HTY_41510_41590")_ + 1 x_("GNY_ESB_41370_41450",_"ESB_YEI_41515_41575")_ + 1 x_("GNY_ESB_41370_41450",_"t")_ = 1
mp_c1_ECN_ESB_41375_41445_: 1 x_("ECN_ESB_41375_41445",_"ESB_ECN_41505_41575")_ + 1 x_("ECN_ESB_41375_41445",_"ESB_MLX_41500_41575")_ + 1 x_("ECN_ESB_41375_41445",_"ESB_HTY_41510_41590")_ + 1 x_("ECN_ESB_41375_41445",_"ESB_YEI_41515_41575")_ + 1 x_("ECN_ESB_41375_41445",_"t")_ = 1
mp_c1_ADA_ESB_41380_41445_: 1 x_("ADA_ESB_41380_41445",_"ESB_ECN_41505_41575")_ + 1 x_("ADA_ESB_41380_41445",_"ESB_MLX_41500_41575")_ + 1 x_("ADA_ESB_41380_41445",_"ESB_HTY_41510_41590")_ + 1 x_("ADA_ESB_41380_41445",_"ESB_YEI_41515_41575")_ + 1 x_("ADA_ESB_41380_41445",_"t")_ = 1
mp_c1_SZF_ESB_41395_41455_: 1 x_("SZF_ESB_41395_41455",_"ESB_ECN_41505_41575")_ + 1 x_("SZF_ESB_41395_41455",_"ESB_MLX_41500_41575")_ + 1 x_("SZF_ESB_41395_41455",_"ESB_HTY_41510_41590")_ + 1 x_("SZF_ESB_41395_41455",_"ESB_YEI_41515_41575")_ + 1 x_("SZF_ESB_41395_41455",_"t")_ = 1
mp_c1_ASR_SAW_41415_41505_: 1 x_("ASR_SAW_41415_41505",_"t")_ = 1
mp_c1_KYA_SAW_41415_41485_: 1 x_("KYA_SAW_41415_41485",_"t")_ = 1
mp_c1_ESB_MLX_41500_41575_: 1 x_("ESB_MLX_41500_41575",_"t")_ = 1
mp_c1_ESB_ECN_41505_41575_: 1 x_("ESB_ECN_41505_41575",_"t")_ = 1
mp_c1_ESB_HTY_41510_41590_: 1 x_("ESB_HTY_41510_41590",_"t")_ = 1
mp_c1_ESB_YEI_41515_41575_: 1 x_("ESB_YEI_41515_41575",_"t")_ = 1
mp_c2_N121_: 1 x_("s",_"N121")_ - 1 x_("N121",_"MLX_ESB_31920_31995")_ - 1 x_("N121",_"MLX_ESB_33360_33435")_ = 0
mp_c2_N122_: 1 x_("s",_"N122")_ - 1 x_("N122",_"YEI_ESB_31920_31980")_ - 1 x_("N122",_"YEI_ESB_33360_33420")_ = 0
mp_c2_N123_: 1 x_("s",_"N123")_ - 1 x_("N123",_"SAW_ADB_31920_31980")_ - 1 x_("N123",_"SAW_ESB_31980_32040")_ - 1 x_("N123",_"SAW_TZX_32145_32245")_ - 1 x_("N123",_"SAW_ESB_32160_32220")_ - 1 x_("N123",_"SAW_VAS_32370_32450")_ - 1 x_("N123",_"SAW_AYT_32385_32450")_ - 1 x_("N123",_"SAW_ESB_32520_32580")_ - 1 x_("N123",_"SAW_ADB_32610_32670")_ - 1 x_("N123",_"SAW_ASR_32655_32740")_ - 1 x_("N123",_"SAW_KYA_32670_32740")_ - 1 x_("N123",_"SAW_ADB_33360_33420")_ = 0
mp_c2_N124_: 1 x_("s",_"N124")_ - 1 x_("N124",_"ECN_ESB_31920_31990")_ - 1 x_("N124",_"ECN_HTY_32520_32585")_ - 1 x_("N124",_"ECN_ESB_32735_32805")_ - 1 x_("N124",_"ECN_ESB_33360_33430")_ = 0
mp_c2_N125_: 1 x_("s",_"N125")_ - 1 x_("N125",_"ESB_SAW_32040_32100")_ - 1 x_("N125",_"ESB_TZX_32040_32120")_ - 1 x_("N125",_"ESB_AJI_32050_32145")_ - 1 x_("N125",_"ESB_BAL_32065_32155")_ - 1 x_("N125",_"ESB_VAN_32125_32220")_ - 1 x_("N125",_"ESB_SAW_32280_32340")_ - 1 x_("N125",_"ESB_MQM_32330_32425")_ - 1 x_("N125",_"ESB_ECN_32340_32410")_ - 1 x_("N125",_"ESB_ERC_32370_32450")_ - 1 x_("N125",_"ESB_SAW_32400_32460")_ - 1 x_("N125",_"ESB_ADB_32490_32570")_ - 1 x_("N125",_"ESB_GNY_32620_32695")_ - 1 x_("N125",_"ESB_ADA_32640_32700")_ - 1 x_("N125",_"ESB_SZF_32660_32720")_ - 1 x_("N125",_"ESB_MLX_32860_32935")_ - 1 x_("N125",_"ESB_ECN_32865_32935")_ - 1 x_("N125",_"ESB_HTY_32870_32950")_ - 1 x_("N125",_"ESB_YEI_32875_32935")_ = 0
mp_c2_N126_: 1 x_("s",_"N126")_ - 1 x_("N126",_"SAW_ADB_31920_31980")_ - 1 x_("N126",_"SAW_ESB_31980_32040")_ - 1 x_("N126",_"SAW_TZX_32145_32245")_ - 1 x_("N126",_"SAW_ESB_32160_32220")_ - 1 x_("N126",_"SAW_VAS_32370_32450")_ - 1 x_("N126",_"SAW_AYT_32385_32450")_ - 1 x_("N126",_"SAW_ESB_32520_32580")_ - 1 x_("N126",_"SAW_ADB_32610_32670")_ - 1 x_("N126",_"SAW_ASR_32655_32740")_ - 1 x_("N126",_"SAW_KYA_32670_32740")_ - 1 x_("N126",_"SAW_ADB_33360_33420")_ = 0
mp_c2_N127_: 1 x_("s",_"N127")_ - 1 x_("N127",_"HTY_ESB_31920_31995")_ - 1 x_("N127",_"HTY_ECN_32625_32690")_ - 1 x_("N127",_"HTY_ESB_33360_33435")_ = 0
mp_c2_N128_: 1 x_("s",_"N128")_ - 1 x_("N128",_"SAW_ADB_31920_31980")_ - 1 x_("N128",_"SAW_ESB_31980_32040")_ - 1 x_("N128",_"SAW_TZX_32145_32245")_ - 1 x_("N128",_"SAW_ESB_32160_32220")_ - 1 x_("N128",_"SAW_VAS_32370_32450")_ - 1 x_("N128",_"SAW_AYT_32385_32450")_ - 1 x_("N128",_"SAW_ESB_32520_32580")_ - 1 x_("N128",_"SAW_ADB_32610_32670")_ - 1 x_("N128",_"SAW_ASR_32655_32740")_ - 1 x_("N128",_"SAW_KYA_32670_32740")_ - 1 x_("N128",_"SAW_ADB_33360_33420")_ = 0
mp_c2_SAW_ADB_31920_31980_: 1 x_("N123",_"SAW_ADB_31920_31980")_ + 1 x_("N126",_"SAW_ADB_31920_31980")_ + 1 x_("N128",_"SAW_ADB_31920_31980")_ - 1 x_("SAW_ADB_31920_31980",_"ADB_SAW_32015_32075")_ - 1 x_("SAW_ADB_31920_31980",_"ADB_SAW_32705_32765")_ - 1 x_("SAW_ADB_31920_31980",_"ADB_ESB_32605_32680")_ = 0
mp_c2_ECN_ESB_31920_31990_: 1 x_("N124",_"ECN_ESB_31920_31990")_ - 1 x_("ECN_ESB_31920_31990",_"ESB_TZX_32040_32120")_ - 1 x_("ECN_ESB_31920_31990",_"ESB_MLX_32860_32935")_ - 1 x_("ECN_ESB_31920_31990",_"ESB_ADA_32640_32700")_ - 1 x_("ECN_ESB_31920_31990",_"ESB_SZF_32660_32720")_ - 1 x_("ECN_ESB_31920_31990",_"ESB_ECN_32865_32935")_ - 1 x_("ECN_ESB_31920_31990",_"ESB_HTY_32870_32950")_ - 1 x_("ECN_ESB_31920_31990",_"ESB_BAL_32065_32155")_ - 1 x_("ECN_ESB_31920_31990",_"ESB_AJI_32050_32145")_ - 1 x_("ECN_ESB_31920_31990",_"ESB_SAW_32040_32100")_ - 1 x_("ECN_ESB_31920_31990",_"ESB_YEI_32875_32935")_ - 1 x_("ECN_ESB_31920_31990",_"ESB_SAW_32280_32340")_ - 1 x_("ECN_ESB_31920_31990",_"ESB_SAW_32400_32460")_ - 1 x_("ECN_ESB_31920_31990",_"ESB_ADB_32490_32570")_ - 1 x_("ECN_ESB_31920_31990",_"ESB_GNY_32620_32695")_ - 1 x_("ECN_ESB_31920_31990",_"ESB_MQM_32330_32425")_ - 1 x_("ECN_ESB_31920_31990",_"ESB_VAN_32125_32220")_ - 1 x_("ECN_ESB_31920_31990",_"ESB_ERC_32370_32450")_ - 1 x_("ECN_ESB_31920_31990",_"ESB_ECN_32340_32410")_ = 0
mp_c2_YEI_ESB_31920_31980_: 1 x_("N122",_"YEI_ESB_31920_31980")_ - 1 x_("YEI_ESB_31920_31980",_"ESB_TZX_32040_32120")_ - 1 x_("YEI_ESB_31920_31980",_"ESB_MLX_32860_32935")_ - 1 x_("YEI_ESB_31920_31980",_"ESB_ADA_32640_32700")_ - 1 x_("YEI_ESB_31920_31980",_"ESB_SZF_32660_32720")_ - 1 x_("YEI_ESB_31920_31980",_"ESB_ECN_32865_32935")_ - 1 x_("YEI_ESB_31920_31980",_"ESB_HTY_32870_32950")_ - 1 x_("YEI_ESB_31920_31980",_"ESB_BAL_32065_32155")_ - 1 x_("YEI_ESB_31920_31980",_"ESB_AJI_32050_32145")_ - 1 x_("YEI_ESB_31920_31980",_"ESB_SAW_32040_32100")_ - 1 x_("YEI_ESB_31920_31980",_"ESB_YEI_32875_32935")_ - 1 x_("YEI_ESB_31920_31980",_"ESB_SAW_32280_32340")_ - 1 x_("YEI_ESB_31920_31980",_"ESB_SAW_32400_32460")_ - 1 x_("YEI_ESB_31920_31980",_"ESB_ADB_32490_32570")_ - 1 x_("YEI_ESB_31920_31980",_"ESB_GNY_32620_32695")_ - 1 x_("YEI_ESB_31920_31980",_"ESB_MQM_32330_32425")_ - 1 x_("YEI_ESB_31920_31980",_"ESB_VAN_32125_32220")_ - 1 x_("YEI_ESB_31920_31980",_"ESB_ERC_32370_32450")_ - 1 x_("YEI_ESB_31920_31980",_"ESB_ECN_32340_32410")_ = 0
mp_c2_MLX_ESB_31920_31995_: 1 x_("N121",_"MLX_ESB_31920_31995")_ - 1 x_("MLX_ESB_31920_31995",_"ESB_TZX_32040_32120")_ - 1 x_("MLX_ESB_31920_31995",_"ESB_MLX_32860_32935")_ - 1 x_("MLX_ESB_31920_31995",_"ESB_ADA_32640_32700")_ - 1 x_("MLX_ESB_31920_31995",_"ESB_SZF_32660_32720")_ - 1 x_("MLX_ESB_31920_31995",_"ESB_ECN_32865_32935")_ - 1 x_("MLX_ESB_31920_31995",_"ESB_HTY_32870_32950")_ - 1 x_("MLX_ESB_31920_31995",_"ESB_BAL_32065_32155")_ - 1 x_("MLX_ESB_31920_31995",_"ESB_AJI_32050_32145")_ - 1 x_("MLX_ESB_31920_31995",_"ESB_SAW_32040_32100")_ - 1 x_("MLX_ESB_31920_31995",_"ESB_YEI_32875_32935")_ - 1 x_("MLX_ESB_31920_31995",_"ESB_SAW_32280_32340")_ - 1 x_("MLX_ESB_31920_31995",_"ESB_SAW_32400_32460")_ - 1 x_("MLX_ESB_31920_31995",_"ESB_ADB_32490_32570")_ - 1 x_("MLX_ESB_31920_31995",_"ESB_GNY_32620_32695")_ - 1 x_("MLX_ESB_31920_31995",_"ESB_MQM_32330_32425")_ - 1 x_("MLX_ESB_31920_31995",_"ESB_VAN_32125_32220")_ - 1 x_("MLX_ESB_31920_31995",_"ESB_ERC_32370_32450")_ - 1 x_("MLX_ESB_31920_31995",_"ESB_ECN_32340_32410")_ = 0
mp_c2_HTY_ESB_31920_31995_: 1 x_("N127",_"HTY_ESB_31920_31995")_ - 1 x_("HTY_ESB_31920_31995",_"ESB_TZX_32040_32120")_ - 1 x_("HTY_ESB_31920_31995",_"ESB_MLX_32860_32935")_ - 1 x_("HTY_ESB_31920_31995",_"ESB_ADA_32640_32700")_ - 1 x_("HTY_ESB_31920_31995",_"ESB_SZF_32660_32720")_ - 1 x_("HTY_ESB_31920_31995",_"ESB_ECN_32865_32935")_ - 1 x_("HTY_ESB_31920_31995",_"ESB_HTY_32870_32950")_ - 1 x_("HTY_ESB_31920_31995",_"ESB_BAL_32065_32155")_ - 1 x_("HTY_ESB_31920_31995",_"ESB_AJI_32050_32145")_ - 1 x_("HTY_ESB_31920_31995",_"ESB_SAW_32040_32100")_ - 1 x_("HTY_ESB_31920_31995",_"ESB_YEI_32875_32935")_ - 1 x_("HTY_ESB_31920_31995",_"ESB_SAW_32280_32340")_ - 1 x_("HTY_ESB_31920_31995",_"ESB_SAW_32400_32460")_ - 1 x_("HTY_ESB_31920_31995",_"ESB_ADB_32490_32570")_ - 1 x_("HTY_ESB_31920_31995",_"ESB_GNY_32620_32695")_ - 1 x_("HTY_ESB_31920_31995",_"ESB_MQM_32330_32425")_ - 1 x_("HTY_ESB_31920_31995",_"ESB_VAN_32125_32220")_ - 1 x_("HTY_ESB_31920_31995",_"ESB_ERC_32370_32450")_ - 1 x_("HTY_ESB_31920_31995",_"ESB_ECN_32340_32410")_ = 0
mp_c2_SAW_ESB_31980_32040_: 1 x_("N123",_"SAW_ESB_31980_32040")_ + 1 x_("N126",_"SAW_ESB_31980_32040")_ + 1 x_("N128",_"SAW_ESB_31980_32040")_ - 1 x_("SAW_ESB_31980_32040",_"ESB_MLX_32860_32935")_ - 1 x_("SAW_ESB_31980_32040",_"ESB_ADA_32640_32700")_ - 1 x_("SAW_ESB_31980_32040",_"ESB_SAW_33480_33540")_ - 1 x_("SAW_ESB_31980_32040",_"ESB_SZF_32660_32720")_ - 1 x_("SAW_ESB_31980_32040",_"ESB_ECN_32865_32935")_ - 1 x_("SAW_ESB_31980_32040",_"ESB_HTY_32870_32950")_ - 1 x_("SAW_ESB_31980_32040",_"ESB_YEI_32875_32935")_ - 1 x_("SAW_ESB_31980_32040",_"ESB_SAW_32280_32340")_ - 1 x_("SAW_ESB_31980_32040",_"ESB_SAW_32400_32460")_ - 1 x_("SAW_ESB_31980_32040",_"ESB_ADB_32490_32570")_ - 1 x_("SAW_ESB_31980_32040",_"ESB_GNY_32620_32695")_ - 1 x_("SAW_ESB_31980_32040",_"ESB_MQM_32330_32425")_ - 1 x_("SAW_ESB_31980_32040",_"ESB_VAN_32125_32220")_ - 1 x_("SAW_ESB_31980_32040",_"ESB_ERC_32370_32450")_ - 1 x_("SAW_ESB_31980_32040",_"ESB_TZX_33480_33560")_ - 1 x_("SAW_ESB_31980_32040",_"ESB_ECN_32340_32410")_ = 0
mp_c2_ADB_SAW_32015_32075_: 1 x_("SAW_ADB_31920_31980",_"ADB_SAW_32015_32075")_ - 1 x_("ADB_SAW_32015_32075",_"SAW_ASR_32655_32740")_ - 1 x_("ADB_SAW_32015_32075",_"SAW_ESB_32520_32580")_ - 1 x_("ADB_SAW_32015_32075",_"SAW_ADB_33360_33420")_ - 1 x_("ADB_SAW_32015_32075",_"SAW_ESB_32160_32220")_ - 1 x_("ADB_SAW_32015_32075",_"SAW_VAS_32370_32450")_ - 1 x_("ADB_SAW_32015_32075",_"SAW_ESB_33420_33480")_ - 1 x_("ADB_SAW_32015_32075",_"SAW_KYA_32670_32740")_ - 1 x_("ADB_SAW_32015_32075",_"SAW_AYT_32385_32450")_ - 1 x_("ADB_SAW_32015_32075",_"SAW_TZX_32145_32245")_ - 1 x_("ADB_SAW_32015_32075",_"SAW_ADB_32610_32670")_ = 0
mp_c2_ESB_SAW_32040_32100_: 1 x_("N125",_"ESB_SAW_32040_32100")_ + 1 x_("ECN_ESB_31920_31990",_"ESB_SAW_32040_32100")_ + 1 x_("YEI_ESB_31920_31980",_"ESB_SAW_32040_32100")_ + 1 x_("MLX_ESB_31920_31995",_"ESB_SAW_32040_32100")_ + 1 x_("HTY_ESB_31920_31995",_"ESB_SAW_32040_32100")_ - 1 x_("ESB_SAW_32040_32100",_"SAW_ASR_32655_32740")_ - 1 x_("ESB_SAW_32040_32100",_"SAW_ESB_32520_32580")_ - 1 x_("ESB_SAW_32040_32100",_"SAW_ADB_33360_33420")_ - 1 x_("ESB_SAW_32040_32100",_"SAW_ESB_32160_32220")_ - 1 x_("ESB_SAW_32040_32100",_"SAW_VAS_32370_32450")_ - 1 x_("ESB_SAW_32040_32100",_"SAW_ESB_33420_33480")_ - 1 x_("ESB_SAW_32040_32100",_"SAW_KYA_32670_32740")_ - 1 x_("ESB_SAW_32040_32100",_"SAW_AYT_32385_32450")_ - 1 x_("ESB_SAW_32040_32100",_"SAW_TZX_32145_32245")_ - 1 x_("ESB_SAW_32040_32100",_"SAW_ADB_32610_32670")_ = 0
mp_c2_ESB_TZX_32040_32120_: 1 x_("N125",_"ESB_TZX_32040_32120")_ + 1 x_("ECN_ESB_31920_31990",_"ESB_TZX_32040_32120")_ + 1 x_("YEI_ESB_31920_31980",_"ESB_TZX_32040_32120")_ + 1 x_("MLX_ESB_31920_31995",_"ESB_TZX_32040_32120")_ + 1 x_("HTY_ESB_31920_31995",_"ESB_TZX_32040_32120")_ - 1 x_("ESB_TZX_32040_32120",_"TZX_SAW_32280_32385")_ - 1 x_("ESB_TZX_32040_32120",_"TZX_ESB_32155_32235")_ = 0
mp_c2_ESB_AJI_32050_32145_: 1 x_("N125",_"ESB_AJI_32050_32145")_ + 1 x_("ECN_ESB_31920_31990",_"ESB_AJI_32050_32145")_ + 1 x_("YEI_ESB_31920_31980",_"ESB_AJI_32050_32145")_ + 1 x_("MLX_ESB_31920_31995",_"ESB_AJI_32050_32145")_ + 1 x_("HTY_ESB_31920_31995",_"ESB_AJI_32050_32145")_ - 1 x_("ESB_AJI_32050_32145",_"AJI_ESB_32180_32285")_ = 0
mp_c2_ESB_BAL_32065_32155_: 1 x_("N125",_"ESB_BAL_32065_32155")_ + 1 x_("ECN_ESB_31920_31990",_"ESB_BAL_32065_32155")_ + 1 x_("YEI_ESB_31920_31980",_"ESB_BAL_32065_32155")_ + 1 x_("MLX_ESB_31920_31995",_"ESB_BAL_32065_32155")_ + 1 x_("HTY_ESB_31920_31995",_"ESB_BAL_32065_32155")_ - 1 x_("ESB_BAL_32065_32155",_"BAL_ESB_32190_32285")_ = 0
mp_c2_ESB_VAN_32125_32220_: 1 x_("N125",_"ESB_VAN_32125_32220")_ + 1 x_("ECN_ESB_31920_31990",_"ESB_VAN_32125_32220")_ + 1 x_("YEI_ESB_31920_31980",_"ESB_VAN_32125_32220")_ + 1 x_("MLX_ESB_31920_31995",_"ESB_VAN_32125_32220")_ + 1 x_("HTY_ESB_31920_31995",_"ESB_VAN_32125_32220")_ + 1 x_("SAW_ESB_31980_32040",_"ESB_VAN_32125_32220")_ - 1 x_("ESB_VAN_32125_32220",_"VAN_ESB_32255_32360")_ = 0
mp_c2_SAW_TZX_32145_32245_: 1 x_("N123",_"SAW_TZX_32145_32245")_ + 1 x_("N126",_"SAW_TZX_32145_32245")_ + 1 x_("N128",_"SAW_TZX_32145_32245")_ + 1 x_("ADB_SAW_32015_32075",_"SAW_TZX_32145_32245")_ + 1 x_("ESB_SAW_32040_32100",_"SAW_TZX_32145_32245")_ - 1 x_("SAW_TZX_32145_32245",_"TZX_SAW_32280_32385")_ - 1 x_("SAW_TZX_32145_32245",_"TZX_ESB_33595_33675")_ = 0
mp_c2_TZX_ESB_32155_32235_: 1 x_("ESB_TZX_32040_32120",_"TZX_ESB_32155_32235")_ - 1 x_("TZX_ESB_32155_32235",_"ESB_MLX_32860_32935")_ - 1 x_("TZX_ESB_32155_32235",_"ESB_ADA_32640_32700")_ - 1 x_("TZX_ESB_32155_32235",_"ESB_SAW_33480_33540")_ - 1 x_("TZX_ESB_32155_32235",_"ESB_SZF_32660_32720")_ - 1 x_("TZX_ESB_32155_32235",_"ESB_ECN_32865_32935")_ - 1 x_("TZX_ESB_32155_32235",_"ESB_HTY_32870_32950")_ - 1 x_("TZX_ESB_32155_32235",_"ESB_AJI_33490_33585")_ - 1 x_("TZX_ESB_32155_32235",_"ESB_YEI_32875_32935")_ - 1 x_("TZX_ESB_32155_32235",_"ESB_SAW_32280_32340")_ - 1 x_("TZX_ESB_32155_32235",_"ESB_SAW_32400_32460")_ - 1 x_("TZX_ESB_32155_32235",_"ESB_VAN_33565_33660")_ - 1 x_("TZX_ESB_32155_32235",_"ESB_ADB_32490_32570")_ - 1 x_("TZX_ESB_32155_32235",_"ESB_BAL_33505_33595")_ - 1 x_("TZX_ESB_32155_32235",_"ESB_GNY_32620_32695")_ - 1 x_("TZX_ESB_32155_32235",_"ESB_MQM_32330_32425")_ - 1 x_("TZX_ESB_32155_32235",_"ESB_ERC_32370_32450")_ - 1 x_("TZX_ESB_32155_32235",_"ESB_TZX_33480_33560")_ - 1 x_("TZX_ESB_32155_32235",_"ESB_ECN_32340_32410")_ = 0
mp_c2_SAW_ESB_32160_32220_: 1 x_("N123",_"SAW_ESB_32160_32220")_ + 1 x_("N126",_"SAW_ESB_32160_32220")_ + 1 x_("N128",_"SAW_ESB_32160_32220")_ + 1 x_("ADB_SAW_32015_32075",_"SAW_ESB_32160_32220")_ + 1 x_("ESB_SAW_32040_32100",_"SAW_ESB_32160_32220")_ - 1 x_("SAW_ESB_32160_32220",_"ESB_MLX_32860_32935")_ - 1 x_("SAW_ESB_32160_32220",_"ESB_ADA_32640_32700")_ - 1 x_("SAW_ESB_32160_32220",_"ESB_SAW_33480_33540")_ - 1 x_("SAW_ESB_32160_32220",_"ESB_SZF_32660_32720")_ - 1 x_("SAW_ESB_32160_32220",_"ESB_ECN_32865_32935")_ - 1 x_("SAW_ESB_32160_32220",_"ESB_HTY_32870_32950")_ - 1 x_("SAW_ESB_32160_32220",_"ESB_AJI_33490_33585")_ - 1 x_("SAW_ESB_32160_32220",_"ESB_YEI_32875_32935")_ - 1 x_("SAW_ESB_32160_32220",_"ESB_SAW_32280_32340")_ - 1 x_("SAW_ESB_32160_32220",_"ESB_SAW_32400_32460")_ - 1 x_("SAW_ESB_32160_32220",_"ESB_VAN_33565_33660")_ - 1 x_("SAW_ESB_32160_32220",_"ESB_ADB_32490_32570")_ - 1 x_("SAW_ESB_32160_32220",_"ESB_BAL_33505_33595")_ - 1 x_("SAW_ESB_32160_32220",_"ESB_GNY_32620_32695")_ - 1 x_("SAW_ESB_32160_32220",_"ESB_MQM_32330_32425")_ - 1 x_("SAW_ESB_32160_32220",_"ESB_ERC_32370_32450")_ - 1 x_("SAW_ESB_32160_32220",_"ESB_TZX_33480_33560")_ - 1 x_("SAW_ESB_32160_32220",_"ESB_ECN_32340_32410")_ = 0
mp_c2_AJI_ESB_32180_32285_: 1 x_("ESB_AJI_32050_32145",_"AJI_ESB_32180_32285")_ - 1 x_("AJI_ESB_32180_32285",_"ESB_MLX_32860_32935")_ - 1 x_("AJI_ESB_32180_32285",_"ESB_ADA_32640_32700")_ - 1 x_("AJI_ESB_32180_32285",_"ESB_SAW_33480_33540")_ - 1 x_("AJI_ESB_32180_32285",_"ESB_SZF_32660_32720")_ - 1 x_("AJI_ESB_32180_32285",_"ESB_ECN_32865_32935")_ - 1 x_("AJI_ESB_32180_32285",_"ESB_HTY_32870_32950")_ - 1 x_("AJI_ESB_32180_32285",_"ESB_AJI_33490_33585")_ - 1 x_("AJI_ESB_32180_32285",_"ESB_YEI_32875_32935")_ - 1 x_("AJI_ESB_32180_32285",_"ESB_SAW_32400_32460")_ - 1 x_("AJI_ESB_32180_32285",_"ESB_VAN_33565_33660")_ - 1 x_("AJI_ESB_32180_32285",_"ESB_ADB_32490_32570")_ - 1 x_("AJI_ESB_32180_32285",_"ESB_BAL_33505_33595")_ - 1 x_("AJI_ESB_32180_32285",_"ESB_SAW_33720_33780")_ - 1 x_("AJI_ESB_32180_32285",_"ESB_GNY_32620_32695")_ - 1 x_("AJI_ESB_32180_32285",_"ESB_MQM_32330_32425")_ - 1 x_("AJI_ESB_32180_32285",_"ESB_ERC_32370_32450")_ - 1 x_("AJI_ESB_32180_32285",_"ESB_TZX_33480_33560")_ - 1 x_("AJI_ESB_32180_32285",_"ESB_ECN_32340_32410")_ = 0
mp_c2_BAL_ESB_32190_32285_: 1 x_("ESB_BAL_32065_32155",_"BAL_ESB_32190_32285")_ - 1 x_("BAL_ESB_32190_32285",_"ESB_MLX_32860_32935")_ - 1 x_("BAL_ESB_32190_32285",_"ESB_ADA_32640_32700")_ - 1 x_("BAL_ESB_32190_32285",_"ESB_SAW_33480_33540")_ - 1 x_("BAL_ESB_32190_32285",_"ESB_SZF_32660_32720")_ - 1 x_("BAL_ESB_32190_32285",_"ESB_ECN_32865_32935")_ - 1 x_("BAL_ESB_32190_32285",_"ESB_HTY_32870_32950")_ - 1 x_("BAL_ESB_32190_32285",_"ESB_AJI_33490_33585")_ - 1 x_("BAL_ESB_32190_32285",_"ESB_YEI_32875_32935")_ - 1 x_("BAL_ESB_32190_32285",_"ESB_SAW_32400_32460")_ - 1 x_("BAL_ESB_32190_32285",_"ESB_VAN_33565_33660")_ - 1 x_("BAL_ESB_32190_32285",_"ESB_ADB_32490_32570")_ - 1 x_("BAL_ESB_32190_32285",_"ESB_BAL_33505_33595")_ - 1 x_("BAL_ESB_32190_32285",_"ESB_SAW_33720_33780")_ - 1 x_("BAL_ESB_32190_32285",_"ESB_GNY_32620_32695")_ - 1 x_("BAL_ESB_32190_32285",_"ESB_MQM_32330_32425")_ - 1 x_("BAL_ESB_32190_32285",_"ESB_ERC_32370_32450")_ - 1 x_("BAL_ESB_32190_32285",_"ESB_TZX_33480_33560")_ - 1 x_("BAL_ESB_32190_32285",_"ESB_ECN_32340_32410")_ = 0
mp_c2_VAN_ESB_32255_32360_: 1 x_("ESB_VAN_32125_32220",_"VAN_ESB_32255_32360")_ - 1 x_("VAN_ESB_32255_32360",_"ESB_MLX_32860_32935")_ - 1 x_("VAN_ESB_32255_32360",_"ESB_ADA_32640_32700")_ - 1 x_("VAN_ESB_32255_32360",_"ESB_SAW_33480_33540")_ - 1 x_("VAN_ESB_32255_32360",_"ESB_SZF_32660_32720")_ - 1 x_("VAN_ESB_32255_32360",_"ESB_ECN_32865_32935")_ - 1 x_("VAN_ESB_32255_32360",_"ESB_HTY_32870_32950")_ - 1 x_("VAN_ESB_32255_32360",_"ESB_AJI_33490_33585")_ - 1 x_("VAN_ESB_32255_32360",_"ESB_YEI_32875_32935")_ - 1 x_("VAN_ESB_32255_32360",_"ESB_SAW_32400_32460")_ - 1 x_("VAN_ESB_32255_32360",_"ESB_VAN_33565_33660")_ - 1 x_("VAN_ESB_32255_32360",_"ESB_ADB_32490_32570")_ - 1 x_("VAN_ESB_32255_32360",_"ESB_BAL_33505_33595")_ - 1 x_("VAN_ESB_32255_32360",_"ESB_SAW_33720_33780")_ - 1 x_("VAN_ESB_32255_32360",_"ESB_GNY_32620_32695")_ - 1 x_("VAN_ESB_32255_32360",_"ESB_TZX_33480_33560")_ - 1 x_("VAN_ESB_32255_32360",_"ESB_MQM_33770_33865")_ = 0
mp_c2_TZX_SAW_32280_32385_: 1 x_("ESB_TZX_32040_32120",_"TZX_SAW_32280_32385")_ + 1 x_("SAW_TZX_32145_32245",_"TZX_SAW_32280_32385")_ - 1 x_("TZX_SAW_32280_32385",_"SAW_ASR_32655_32740")_ - 1 x_("TZX_SAW_32280_32385",_"SAW_TZX_33585_33685")_ - 1 x_("TZX_SAW_32280_32385",_"SAW_ESB_32520_32580")_ - 1 x_("TZX_SAW_32280_32385",_"SAW_VAS_33810_33890")_ - 1 x_("TZX_SAW_32280_32385",_"SAW_ESB_33600_33660")_ - 1 x_("TZX_SAW_32280_32385",_"SAW_AYT_33825_33890")_ - 1 x_("TZX_SAW_32280_32385",_"SAW_ADB_33360_33420")_ - 1 x_("TZX_SAW_32280_32385",_"SAW_ESB_33420_33480")_ - 1 x_("TZX_SAW_32280_32385",_"SAW_KYA_32670_32740")_ - 1 x_("TZX_SAW_32280_32385",_"SAW_ADB_32610_32670")_ = 0
mp_c2_ESB_SAW_32280_32340_: 1 x_("N125",_"ESB_SAW_32280_32340")_ + 1 x_("ECN_ESB_31920_31990",_"ESB_SAW_32280_32340")_ + 1 x_("YEI_ESB_31920_31980",_"ESB_SAW_32280_32340")_ + 1 x_("MLX_ESB_31920_31995",_"ESB_SAW_32280_32340")_ + 1 x_("HTY_ESB_31920_31995",_"ESB_SAW_32280_32340")_ + 1 x_("SAW_ESB_31980_32040",_"ESB_SAW_32280_32340")_ + 1 x_("TZX_ESB_32155_32235",_"ESB_SAW_32280_32340")_ + 1 x_("SAW_ESB_32160_32220",_"ESB_SAW_32280_32340")_ - 1 x_("ESB_SAW_32280_32340",_"SAW_ASR_32655_32740")_ - 1 x_("ESB_SAW_32280_32340",_"SAW_TZX_33585_33685")_ - 1 x_("ESB_SAW_32280_32340",_"SAW_ESB_32520_32580")_ - 1 x_("ESB_SAW_32280_32340",_"SAW_ESB_33600_33660")_ - 1 x_("ESB_SAW_32280_32340",_"SAW_ADB_33360_33420")_ - 1 x_("ESB_SAW_32280_32340",_"SAW_ESB_33420_33480")_ - 1 x_("ESB_SAW_32280_32340",_"SAW_KYA_32670_32740")_ - 1 x_("ESB_SAW_32280_32340",_"SAW_AYT_32385_32450")_ - 1 x_("ESB_SAW_32280_32340",_"SAW_ADB_32610_32670")_ = 0
mp_c2_ESB_MQM_32330_32425_: 1 x_("N125",_"ESB_MQM_32330_32425")_ + 1 x_("ECN_ESB_31920_31990",_"ESB_MQM_32330_32425")_ + 1 x_("YEI_ESB_31920_31980",_"ESB_MQM_32330_32425")_ + 1 x_("MLX_ESB_31920_31995",_"ESB_MQM_32330_32425")_ + 1 x_("HTY_ESB_31920_31995",_"ESB_MQM_32330_32425")_ + 1 x_("SAW_ESB_31980_32040",_"ESB_MQM_32330_32425")_ + 1 x_("TZX_ESB_32155_32235",_"ESB_MQM_32330_32425")_ + 1 x_("SAW_ESB_32160_32220",_"ESB_MQM_32330_32425")_ + 1 x_("AJI_ESB_32180_32285",_"ESB_MQM_32330_32425")_ + 1 x_("BAL_ESB_32190_32285",_"ESB_MQM_32330_32425")_ - 1 x_("ESB_MQM_32330_32425",_"MQM_ESB_32460_32555")_ = 0
mp_c2_ESB_ECN_32340_32410_: 1 x_("N125",_"ESB_ECN_32340_32410")_ + 1 x_("ECN_ESB_31920_31990",_"ESB_ECN_32340_32410")_ + 1 x_("YEI_ESB_31920_31980",_"ESB_ECN_32340_32410")_ + 1 x_("MLX_ESB_31920_31995",_"ESB_ECN_32340_32410")_ + 1 x_("HTY_ESB_31920_31995",_"ESB_ECN_32340_32410")_ + 1 x_("SAW_ESB_31980_32040",_"ESB_ECN_32340_32410")_ + 1 x_("TZX_ESB_32155_32235",_"ESB_ECN_32340_32410")_ + 1 x_("SAW_ESB_32160_32220",_"ESB_ECN_32340_32410")_ + 1 x_("AJI_ESB_32180_32285",_"ESB_ECN_32340_32410")_ + 1 x_("BAL_ESB_32190_32285",_"ESB_ECN_32340_32410")_ - 1 x_("ESB_ECN_32340_32410",_"ECN_ESB_33360_33430")_ - 1 x_("ESB_ECN_32340_32410",_"ECN_HTY_32520_32585")_ - 1 x_("ESB_ECN_32340_32410",_"ECN_ESB_32735_32805")_ = 0
mp_c2_ESB_ERC_32370_32450_: 1 x_("N125",_"ESB_ERC_32370_32450")_ + 1 x_("ECN_ESB_31920_31990",_"ESB_ERC_32370_32450")_ + 1 x_("YEI_ESB_31920_31980",_"ESB_ERC_32370_32450")_ + 1 x_("MLX_ESB_31920_31995",_"ESB_ERC_32370_32450")_ + 1 x_("HTY_ESB_31920_31995",_"ESB_ERC_32370_32450")_ + 1 x_("SAW_ESB_31980_32040",_"ESB_ERC_32370_32450")_ + 1 x_("TZX_ESB_32155_32235",_"ESB_ERC_32370_32450")_ + 1 x_("SAW_ESB_32160_32220",_"ESB_ERC_32370_32450")_ + 1 x_("AJI_ESB_32180_32285",_"ESB_ERC_32370_32450")_ + 1 x_("BAL_ESB_32190_32285",_"ESB_ERC_32370_32450")_ - 1 x_("ESB_ERC_32370_32450",_"ERC_ESB_32485_32565")_ = 0
mp_c2_SAW_VAS_32370_32450_: 1 x_("N123",_"SAW_VAS_32370_32450")_ + 1 x_("N126",_"SAW_VAS_32370_32450")_ + 1 x_("N128",_"SAW_VAS_32370_32450")_ + 1 x_("ADB_SAW_32015_32075",_"SAW_VAS_32370_32450")_ + 1 x_("ESB_SAW_32040_32100",_"SAW_VAS_32370_32450")_ - 1 x_("SAW_VAS_32370_32450",_"VAS_SAW_32485_32565")_ = 0
mp_c2_SAW_AYT_32385_32450_: 1 x_("N123",_"SAW_AYT_32385_32450")_ + 1 x_("N126",_"SAW_AYT_32385_32450")_ + 1 x_("N128",_"SAW_AYT_32385_32450")_ + 1 x_("ADB_SAW_32015_32075",_"SAW_AYT_32385_32450")_ + 1 x_("ESB_SAW_32040_32100",_"SAW_AYT_32385_32450")_ + 1 x_("ESB_SAW_32280_32340",_"SAW_AYT_32385_32450")_ - 1 x_("SAW_AYT_32385_32450",_"AYT_SAW_32490_32555")_ = 0
mp_c2_ESB_SAW_32400_32460_: 1 x_("N125",_"ESB_SAW_32400_32460")_ + 1 x_("ECN_ESB_31920_31990",_"ESB_SAW_32400_32460")_ + 1 x_("YEI_ESB_31920_31980",_"ESB_SAW_32400_32460")_ + 1 x_("MLX_ESB_31920_31995",_"ESB_SAW_32400_32460")_ + 1 x_("HTY_ESB_31920_31995",_"ESB_SAW_32400_32460")_ + 1 x_("SAW_ESB_31980_32040",_"ESB_SAW_32400_32460")_ + 1 x_("TZX_ESB_32155_32235",_"ESB_SAW_32400_32460")_ + 1 x_("SAW_ESB_32160_32220",_"ESB_SAW_32400_32460")_ + 1 x_("AJI_ESB_32180_32285",_"ESB_SAW_32400_32460")_ + 1 x_("BAL_ESB_32190_32285",_"ESB_SAW_32400_32460")_ + 1 x_("VAN_ESB_32255_32360",_"ESB_SAW_32400_32460")_ - 1 x_("ESB_SAW_32400_32460",_"SAW_ASR_32655_32740")_ - 1 x_("ESB_SAW_32400_32460",_"SAW_TZX_33585_33685")_ - 1 x_("ESB_SAW_32400_32460",_"SAW_ESB_32520_32580")_ - 1 x_("ESB_SAW_32400_32460",_"SAW_VAS_33810_33890")_ - 1 x_("ESB_SAW_32400_32460",_"SAW_ESB_33600_33660")_ - 1 x_("ESB_SAW_32400_32460",_"SAW_AYT_33825_33890")_ - 1 x_("ESB_SAW_32400_32460",_"SAW_ADB_33360_33420")_ - 1 x_("ESB_SAW_32400_32460",_"SAW_ESB_33420_33480")_ - 1 x_("ESB_SAW_32400_32460",_"SAW_KYA_32670_32740")_ - 1 x_("ESB_SAW_32400_32460",_"SAW_ADB_32610_32670")_ = 0
mp_c2_MQM_ESB_32460_32555_: 1 x_("ESB_MQM_32330_32425",_"MQM_ESB_32460_32555")_ - 1 x_("MQM_ESB_32460_32555",_"ESB_MLX_32860_32935")_ - 1 x_("MQM_ESB_32460_32555",_"ESB_ADA_32640_32700")_ - 1 x_("MQM_ESB_32460_32555",_"ESB_SAW_33480_33540")_ - 1 x_("MQM_ESB_32460_32555",_"ESB_SZF_32660_32720")_ - 1 x_("MQM_ESB_32460_32555",_"ESB_ECN_32865_32935")_ - 1 x_("MQM_ESB_32460_32555",_"ESB_HTY_32870_32950")_ - 1 x_("MQM_ESB_32460_32555",_"ESB_SAW_33840_33900")_ - 1 x_("MQM_ESB_32460_32555",_"ESB_ERC_33810_33890")_ - 1 x_("MQM_ESB_32460_32555",_"ESB_AJI_33490_33585")_ - 1 x_("MQM_ESB_32460_32555",_"ESB_YEI_32875_32935")_ - 1 x_("MQM_ESB_32460_32555",_"ESB_VAN_33565_33660")_ - 1 x_("MQM_ESB_32460_32555",_"ESB_ADB_33930_34010")_ - 1 x_("MQM_ESB_32460_32555",_"ESB_BAL_33505_33595")_ - 1 x_("MQM_ESB_32460_32555",_"ESB_SAW_33720_33780")_ - 1 x_("MQM_ESB_32460_32555",_"ESB_GNY_32620_32695")_ - 1 x_("MQM_ESB_32460_32555",_"ESB_TZX_33480_33560")_ - 1 x_("MQM_ESB_32460_32555",_"ESB_MQM_33770_33865")_ = 0
mp_c2_ERC_ESB_32485_32565_: 1 x_("ESB_ERC_32370_32450",_"ERC_ESB_32485_32565")_ - 1 x_("ERC_ESB_32485_32565",_"ESB_MLX_32860_32935")_ - 1 x_("ERC_ESB_32485_32565",_"ESB_ADA_32640_32700")_ - 1 x_("ERC_ESB_32485_32565",_"ESB_SAW_33480_33540")_ - 1 x_("ERC_ESB_32485_32565",_"ESB_SZF_32660_32720")_ - 1 x_("ERC_ESB_32485_32565",_"ESB_ECN_32865_32935")_ - 1 x_("ERC_ESB_32485_32565",_"ESB_HTY_32870_32950")_ - 1 x_("ERC_ESB_32485_32565",_"ESB_SAW_33840_33900")_ - 1 x_("ERC_ESB_32485_32565",_"ESB_ERC_33810_33890")_ - 1 x_("ERC_ESB_32485_32565",_"ESB_AJI_33490_33585")_ - 1 x_("ERC_ESB_32485_32565",_"ESB_YEI_32875_32935")_ - 1 x_("ERC_ESB_32485_32565",_"ESB_VAN_33565_33660")_ - 1 x_("ERC_ESB_32485_32565",_"ESB_ADB_33930_34010")_ - 1 x_("ERC_ESB_32485_32565",_"ESB_BAL_33505_33595")_ - 1 x_("ERC_ESB_32485_32565",_"ESB_SAW_33720_33780")_ - 1 x_("ERC_ESB_32485_32565",_"ESB_GNY_32620_32695")_ - 1 x_("ERC_ESB_32485_32565",_"ESB_TZX_33480_33560")_ - 1 x_("ERC_ESB_32485_32565",_"ESB_MQM_33770_33865")_ = 0
mp_c2_VAS_SAW_32485_32565_: 1 x_("SAW_VAS_32370_32450",_"VAS_SAW_32485_32565")_ - 1 x_("VAS_SAW_32485_32565",_"SAW_ESB_33960_34020")_ - 1 x_("VAS_SAW_32485_32565",_"SAW_ASR_32655_32740")_ - 1 x_("VAS_SAW_32485_32565",_"SAW_TZX_33585_33685")_ - 1 x_("VAS_SAW_32485_32565",_"SAW_VAS_33810_33890")_ - 1 x_("VAS_SAW_32485_32565",_"SAW_ESB_33600_33660")_ - 1 x_("VAS_SAW_32485_32565",_"SAW_AYT_33825_33890")_ - 1 x_("VAS_SAW_32485_32565",_"SAW_ADB_33360_33420")_ - 1 x_("VAS_SAW_32485_32565",_"SAW_ESB_33420_33480")_ - 1 x_("VAS_SAW_32485_32565",_"SAW_KYA_32670_32740")_ - 1 x_("VAS_SAW_32485_32565",_"SAW_ADB_32610_32670")_ = 0
mp_c2_ESB_ADB_32490_32570_: 1 x_("N125",_"ESB_ADB_32490_32570")_ + 1 x_("ECN_ESB_31920_31990",_"ESB_ADB_32490_32570")_ + 1 x_("YEI_ESB_31920_31980",_"ESB_ADB_32490_32570")_ + 1 x_("MLX_ESB_31920_31995",_"ESB_ADB_32490_32570")_ + 1 x_("HTY_ESB_31920_31995",_"ESB_ADB_32490_32570")_ + 1 x_("SAW_ESB_31980_32040",_"ESB_ADB_32490_32570")_ + 1 x_("TZX_ESB_32155_32235",_"ESB_ADB_32490_32570")_ + 1 x_("SAW_ESB_32160_32220",_"ESB_ADB_32490_32570")_ + 1 x_("AJI_ESB_32180_32285",_"ESB_ADB_32490_32570")_ + 1 x_("BAL_ESB_32190_32285",_"ESB_ADB_32490_32570")_ + 1 x_("VAN_ESB_32255_32360",_"ESB_ADB_32490_32570")_ - 1 x_("ESB_ADB_32490_32570",_"ADB_SAW_32705_32765")_ - 1 x_("ESB_ADB_32490_32570",_"ADB_SAW_33455_33515")_ - 1 x_("ESB_ADB_32490_32570",_"ADB_ESB_32605_32680")_ = 0
mp_c2_AYT_SAW_32490_32555_: 1 x_("SAW_AYT_32385_32450",_"AYT_SAW_32490_32555")_ - 1 x_("AYT_SAW_32490_32555",_"SAW_ESB_33960_34020")_ - 1 x_("AYT_SAW_32490_32555",_"SAW_ASR_32655_32740")_ - 1 x_("AYT_SAW_32490_32555",_"SAW_TZX_33585_33685")_ - 1 x_("AYT_SAW_32490_32555",_"SAW_VAS_33810_33890")_ - 1 x_("AYT_SAW_32490_32555",_"SAW_ESB_33600_33660")_ - 1 x_("AYT_SAW_32490_32555",_"SAW_AYT_33825_33890")_ - 1 x_("AYT_SAW_32490_32555",_"SAW_ADB_33360_33420")_ - 1 x_("AYT_SAW_32490_32555",_"SAW_ESB_33420_33480")_ - 1 x_("AYT_SAW_32490_32555",_"SAW_KYA_32670_32740")_ - 1 x_("AYT_SAW_32490_32555",_"SAW_ADB_32610_32670")_ = 0
mp_c2_SAW_ESB_32520_32580_: 1 x_("N123",_"SAW_ESB_32520_32580")_ + 1 x_("N126",_"SAW_ESB_32520_32580")_ + 1 x_("N128",_"SAW_ESB_32520_32580")_ + 1 x_("ADB_SAW_32015_32075",_"SAW_ESB_32520_32580")_ + 1 x_("ESB_SAW_32040_32100",_"SAW_ESB_32520_32580")_ + 1 x_("TZX_SAW_32280_32385",_"SAW_ESB_32520_32580")_ + 1 x_("ESB_SAW_32280_32340",_"SAW_ESB_32520_32580")_ + 1 x_("ESB_SAW_32400_32460",_"SAW_ESB_32520_32580")_ - 1 x_("SAW_ESB_32520_32580",_"ESB_MLX_32860_32935")_ - 1 x_("SAW_ESB_32520_32580",_"ESB_ADA_32640_32700")_ - 1 x_("SAW_ESB_32520_32580",_"ESB_SAW_33480_33540")_ - 1 x_("SAW_ESB_32520_32580",_"ESB_SZF_32660_32720")_ - 1 x_("SAW_ESB_32520_32580",_"ESB_ECN_32865_32935")_ - 1 x_("SAW_ESB_32520_32580",_"ESB_HTY_32870_32950")_ - 1 x_("SAW_ESB_32520_32580",_"ESB_SAW_33840_33900")_ - 1 x_("SAW_ESB_32520_32580",_"ESB_ERC_33810_33890")_ - 1 x_("SAW_ESB_32520_32580",_"ESB_AJI_33490_33585")_ - 1 x_("SAW_ESB_32520_32580",_"ESB_YEI_32875_32935")_ - 1 x_("SAW_ESB_32520_32580",_"ESB_VAN_33565_33660")_ - 1 x_("SAW_ESB_32520_32580",_"ESB_ADB_33930_34010")_ - 1 x_("SAW_ESB_32520_32580",_"ESB_BAL_33505_33595")_ - 1 x_("SAW_ESB_32520_32580",_"ESB_SAW_33720_33780")_ - 1 x_("SAW_ESB_32520_32580",_"ESB_GNY_32620_32695")_ - 1 x_("SAW_ESB_32520_32580",_"ESB_TZX_33480_33560")_ - 1 x_("SAW_ESB_32520_32580",_"ESB_MQM_33770_33865")_ = 0
mp_c2_ECN_HTY_32520_32585_: 1 x_("N124",_"ECN_HTY_32520_32585")_ + 1 x_("ESB_ECN_32340_32410",_"ECN_HTY_32520_32585")_ - 1 x_("ECN_HTY_32520_32585",_"HTY_ECN_32625_32690")_ - 1 x_("ECN_HTY_32520_32585",_"HTY_ESB_33360_33435")_ = 0
mp_c2_ADB_ESB_32605_32680_: 1 x_("SAW_ADB_31920_31980",_"ADB_ESB_32605_32680")_ + 1 x_("ESB_ADB_32490_32570",_"ADB_ESB_32605_32680")_ - 1 x_("ADB_ESB_32605_32680",_"ESB_MLX_32860_32935")_ - 1 x_("ADB_ESB_32605_32680",_"ESB_SAW_33480_33540")_ - 1 x_("ADB_ESB_32605_32680",_"ESB_ECN_32865_32935")_ - 1 x_("ADB_ESB_32605_32680",_"ESB_HTY_32870_32950")_ - 1 x_("ADB_ESB_32605_32680",_"ESB_SAW_33840_33900")_ - 1 x_("ADB_ESB_32605_32680",_"ESB_SZF_34100_34160")_ - 1 x_("ADB_ESB_32605_32680",_"ESB_ERC_33810_33890")_ - 1 x_("ADB_ESB_32605_32680",_"ESB_AJI_33490_33585")_ - 1 x_("ADB_ESB_32605_32680",_"ESB_YEI_32875_32935")_ - 1 x_("ADB_ESB_32605_32680",_"ESB_ADA_34080_34140")_ - 1 x_("ADB_ESB_32605_32680",_"ESB_VAN_33565_33660")_ - 1 x_("ADB_ESB_32605_32680",_"ESB_ADB_33930_34010")_ - 1 x_("ADB_ESB_32605_32680",_"ESB_BAL_33505_33595")_ - 1 x_("ADB_ESB_32605_32680",_"ESB_SAW_33720_33780")_ - 1 x_("ADB_ESB_32605_32680",_"ESB_GNY_34060_34135")_ - 1 x_("ADB_ESB_32605_32680",_"ESB_TZX_33480_33560")_ - 1 x_("ADB_ESB_32605_32680",_"ESB_MQM_33770_33865")_ = 0
mp_c2_SAW_ADB_32610_32670_: 1 x_("N123",_"SAW_ADB_32610_32670")_ + 1 x_("N126",_"SAW_ADB_32610_32670")_ + 1 x_("N128",_"SAW_ADB_32610_32670")_ + 1 x_("ADB_SAW_32015_32075",_"SAW_ADB_32610_32670")_ + 1 x_("ESB_SAW_32040_32100",_"SAW_ADB_32610_32670")_ + 1 x_("TZX_SAW_32280_32385",_"SAW_ADB_32610_32670")_ + 1 x_("ESB_SAW_32280_32340",_"SAW_ADB_32610_32670")_ + 1 x_("ESB_SAW_32400_32460",_"SAW_ADB_32610_32670")_ + 1 x_("VAS_SAW_32485_32565",_"SAW_ADB_32610_32670")_ + 1 x_("AYT_SAW_32490_32555",_"SAW_ADB_32610_32670")_ - 1 x_("SAW_ADB_32610_32670",_"ADB_SAW_32705_32765")_ - 1 x_("SAW_ADB_32610_32670",_"ADB_SAW_33455_33515")_ - 1 x_("SAW_ADB_32610_32670",_"ADB_ESB_34045_34120")_ = 0
mp_c2_ESB_GNY_32620_32695_: 1 x_("N125",_"ESB_GNY_32620_32695")_ + 1 x_("ECN_ESB_31920_31990",_"ESB_GNY_32620_32695")_ + 1 x_("YEI_ESB_31920_31980",_"ESB_GNY_32620_32695")_ + 1 x_("MLX_ESB_31920_31995",_"ESB_GNY_32620_32695")_ + 1 x_("HTY_ESB_31920_31995",_"ESB_GNY_32620_32695")_ + 1 x_("SAW_ESB_31980_32040",_"ESB_GNY_32620_32695")_ + 1 x_("TZX_ESB_32155_32235",_"ESB_GNY_32620_32695")_ + 1 x_("SAW_ESB_32160_32220",_"ESB_GNY_32620_32695")_ + 1 x_("AJI_ESB_32180_32285",_"ESB_GNY_32620_32695")_ + 1 x_("BAL_ESB_32190_32285",_"ESB_GNY_32620_32695")_ + 1 x_("VAN_ESB_32255_32360",_"ESB_GNY_32620_32695")_ + 1 x_("MQM_ESB_32460_32555",_"ESB_GNY_32620_32695")_ + 1 x_("ERC_ESB_32485_32565",_"ESB_GNY_32620_32695")_ + 1 x_("SAW_ESB_32520_32580",_"ESB_GNY_32620_32695")_ - 1 x_("ESB_GNY_32620_32695",_"GNY_ESB_32730_32810")_ = 0
mp_c2_HTY_ECN_32625_32690_: 1 x_("N127",_"HTY_ECN_32625_32690")_ + 1 x_("ECN_HTY_32520_32585",_"HTY_ECN_32625_32690")_ - 1 x_("HTY_ECN_32625_32690",_"ECN_ESB_33360_33430")_ - 1 x_("HTY_ECN_32625_32690",_"ECN_ESB_32735_32805")_ = 0
mp_c2_ESB_ADA_32640_32700_: 1 x_("N125",_"ESB_ADA_32640_32700")_ + 1 x_("ECN_ESB_31920_31990",_"ESB_ADA_32640_32700")_ + 1 x_("YEI_ESB_31920_31980",_"ESB_ADA_32640_32700")_ + 1 x_("MLX_ESB_31920_31995",_"ESB_ADA_32640_32700")_ + 1 x_("HTY_ESB_31920_31995",_"ESB_ADA_32640_32700")_ + 1 x_("SAW_ESB_31980_32040",_"ESB_ADA_32640_32700")_ + 1 x_("TZX_ESB_32155_32235",_"ESB_ADA_32640_32700")_ + 1 x_("SAW_ESB_32160_32220",_"ESB_ADA_32640_32700")_ + 1 x_("AJI_ESB_32180_32285",_"ESB_ADA_32640_32700")_ + 1 x_("BAL_ESB_32190_32285",_"ESB_ADA_32640_32700")_ + 1 x_("VAN_ESB_32255_32360",_"ESB_ADA_32640_32700")_ + 1 x_("MQM_ESB_32460_32555",_"ESB_ADA_32640_32700")_ + 1 x_("ERC_ESB_32485_32565",_"ESB_ADA_32640_32700")_ + 1 x_("SAW_ESB_32520_32580",_"ESB_ADA_32640_32700")_ - 1 x_("ESB_ADA_32640_32700",_"ADA_ESB_32740_32805")_ = 0
mp_c2_SAW_ASR_32655_32740_: 1 x_("N123",_"SAW_ASR_32655_32740")_ + 1 x_("N126",_"SAW_ASR_32655_32740")_ + 1 x_("N128",_"SAW_ASR_32655_32740")_ + 1 x_("ADB_SAW_32015_32075",_"SAW_ASR_32655_32740")_ + 1 x_("ESB_SAW_32040_32100",_"SAW_ASR_32655_32740")_ + 1 x_("TZX_SAW_32280_32385",_"SAW_ASR_32655_32740")_ + 1 x_("ESB_SAW_32280_32340",_"SAW_ASR_32655_32740")_ + 1 x_("ESB_SAW_32400_32460",_"SAW_ASR_32655_32740")_ + 1 x_("VAS_SAW_32485_32565",_"SAW_ASR_32655_32740")_ + 1 x_("AYT_SAW_32490_32555",_"SAW_ASR_32655_32740")_ - 1 x_("SAW_ASR_32655_32740",_"ASR_SAW_32775_32865")_ = 0
mp_c2_ESB_SZF_32660_32720_: 1 x_("N125",_"ESB_SZF_32660_32720")_ + 1 x_("ECN_ESB_31920_31990",_"ESB_SZF_32660_32720")_ + 1 x_("YEI_ESB_31920_31980",_"ESB_SZF_32660_32720")_ + 1 x_("MLX_ESB_31920_31995",_"ESB_SZF_32660_32720")_ + 1 x_("HTY_ESB_31920_31995",_"ESB_SZF_32660_32720")_ + 1 x_("SAW_ESB_31980_32040",_"ESB_SZF_32660_32720")_ + 1 x_("TZX_ESB_32155_32235",_"ESB_SZF_32660_32720")_ + 1 x_("SAW_ESB_32160_32220",_"ESB_SZF_32660_32720")_ + 1 x_("AJI_ESB_32180_32285",_"ESB_SZF_32660_32720")_ + 1 x_("BAL_ESB_32190_32285",_"ESB_SZF_32660_32720")_ + 1 x_("VAN_ESB_32255_32360",_"ESB_SZF_32660_32720")_ + 1 x_("MQM_ESB_32460_32555",_"ESB_SZF_32660_32720")_ + 1 x_("ERC_ESB_32485_32565",_"ESB_SZF_32660_32720")_ + 1 x_("SAW_ESB_32520_32580",_"ESB_SZF_32660_32720")_ - 1 x_("ESB_SZF_32660_32720",_"SZF_ESB_32755_32815")_ = 0
mp_c2_SAW_KYA_32670_32740_: 1 x_("N123",_"SAW_KYA_32670_32740")_ + 1 x_("N126",_"SAW_KYA_32670_32740")_ + 1 x_("N128",_"SAW_KYA_32670_32740")_ + 1 x_("ADB_SAW_32015_32075",_"SAW_KYA_32670_32740")_ + 1 x_("ESB_SAW_32040_32100",_"SAW_KYA_32670_32740")_ + 1 x_("TZX_SAW_32280_32385",_"SAW_KYA_32670_32740")_ + 1 x_("ESB_SAW_32280_32340",_"SAW_KYA_32670_32740")_ + 1 x_("ESB_SAW_32400_32460",_"SAW_KYA_32670_32740")_ + 1 x_("VAS_SAW_32485_32565",_"SAW_KYA_32670_32740")_ + 1 x_("AYT_SAW_32490_32555",_"SAW_KYA_32670_32740")_ - 1 x_("SAW_KYA_32670_32740",_"KYA_SAW_32775_32845")_ = 0
mp_c2_ADB_SAW_32705_32765_: 1 x_("SAW_ADB_31920_31980",_"ADB_SAW_32705_32765")_ + 1 x_("ESB_ADB_32490_32570",_"ADB_SAW_32705_32765")_ + 1 x_("SAW_ADB_32610_32670",_"ADB_SAW_32705_32765")_ - 1 x_("ADB_SAW_32705_32765",_"SAW_ADB_34050_34110")_ - 1 x_("ADB_SAW_32705_32765",_"SAW_ESB_33960_34020")_ - 1 x_("ADB_SAW_32705_32765",_"SAW_TZX_33585_33685")_ - 1 x_("ADB_SAW_32705_32765",_"SAW_VAS_33810_33890")_ - 1 x_("ADB_SAW_32705_32765",_"SAW_ESB_33600_33660")_ - 1 x_("ADB_SAW_32705_32765",_"SAW_AYT_33825_33890")_ - 1 x_("ADB_SAW_32705_32765",_"SAW_ADB_33360_33420")_ - 1 x_("ADB_SAW_32705_32765",_"SAW_ESB_33420_33480")_ - 1 x_("ADB_SAW_32705_32765",_"SAW_ASR_34095_34180")_ = 0
mp_c2_GNY_ESB_32730_32810_: 1 x_("ESB_GNY_32620_32695",_"GNY_ESB_32730_32810")_ - 1 x_("GNY_ESB_32730_32810",_"ESB_MLX_32860_32935")_ - 1 x_("GNY_ESB_32730_32810",_"ESB_SAW_33480_33540")_ - 1 x_("GNY_ESB_32730_32810",_"ESB_ECN_32865_32935")_ - 1 x_("GNY_ESB_32730_32810",_"ESB_HTY_32870_32950")_ - 1 x_("GNY_ESB_32730_32810",_"ESB_SAW_33840_33900")_ - 1 x_("GNY_ESB_32730_32810",_"ESB_SZF_34100_34160")_ - 1 x_("GNY_ESB_32730_32810",_"ESB_ERC_33810_33890")_ - 1 x_("GNY_ESB_32730_32810",_"ESB_AJI_33490_33585")_ - 1 x_("GNY_ESB_32730_32810",_"ESB_YEI_32875_32935")_ - 1 x_("GNY_ESB_32730_32810",_"ESB_ADA_34080_34140")_ - 1 x_("GNY_ESB_32730_32810",_"ESB_VAN_33565_33660")_ - 1 x_("GNY_ESB_32730_32810",_"ESB_ADB_33930_34010")_ - 1 x_("GNY_ESB_32730_32810",_"ESB_BAL_33505_33595")_ - 1 x_("GNY_ESB_32730_32810",_"ESB_SAW_33720_33780")_ - 1 x_("GNY_ESB_32730_32810",_"ESB_GNY_34060_34135")_ - 1 x_("GNY_ESB_32730_32810",_"ESB_TZX_33480_33560")_ - 1 x_("GNY_ESB_32730_32810",_"ESB_MQM_33770_33865")_ = 0
mp_c2_ECN_ESB_32735_32805_: 1 x_("N124",_"ECN_ESB_32735_32805")_ + 1 x_("ESB_ECN_32340_32410",_"ECN_ESB_32735_32805")_ + 1 x_("HTY_ECN_32625_32690",_"ECN_ESB_32735_32805")_ - 1 x_("ECN_ESB_32735_32805",_"ESB_MLX_32860_32935")_ - 1 x_("ECN_ESB_32735_32805",_"ESB_SAW_33480_33540")_ - 1 x_("ECN_ESB_32735_32805",_"ESB_ECN_32865_32935")_ - 1 x_("ECN_ESB_32735_32805",_"ESB_HTY_32870_32950")_ - 1 x_("ECN_ESB_32735_32805",_"ESB_SAW_33840_33900")_ - 1 x_("ECN_ESB_32735_32805",_"ESB_SZF_34100_34160")_ - 1 x_("ECN_ESB_32735_32805",_"ESB_ERC_33810_33890")_ - 1 x_("ECN_ESB_32735_32805",_"ESB_AJI_33490_33585")_ - 1 x_("ECN_ESB_32735_32805",_"ESB_YEI_32875_32935")_ - 1 x_("ECN_ESB_32735_32805",_"ESB_ADA_34080_34140")_ - 1 x_("ECN_ESB_32735_32805",_"ESB_VAN_33565_33660")_ - 1 x_("ECN_ESB_32735_32805",_"ESB_ADB_33930_34010")_ - 1 x_("ECN_ESB_32735_32805",_"ESB_BAL_33505_33595")_ - 1 x_("ECN_ESB_32735_32805",_"ESB_SAW_33720_33780")_ - 1 x_("ECN_ESB_32735_32805",_"ESB_GNY_34060_34135")_ - 1 x_("ECN_ESB_32735_32805",_"ESB_TZX_33480_33560")_ - 1 x_("ECN_ESB_32735_32805",_"ESB_MQM_33770_33865")_ = 0
mp_c2_ADA_ESB_32740_32805_: 1 x_("ESB_ADA_32640_32700",_"ADA_ESB_32740_32805")_ - 1 x_("ADA_ESB_32740_32805",_"ESB_MLX_32860_32935")_ - 1 x_("ADA_ESB_32740_32805",_"ESB_SAW_33480_33540")_ - 1 x_("ADA_ESB_32740_32805",_"ESB_ECN_32865_32935")_ - 1 x_("ADA_ESB_32740_32805",_"ESB_HTY_32870_32950")_ - 1 x_("ADA_ESB_32740_32805",_"ESB_SAW_33840_33900")_ - 1 x_("ADA_ESB_32740_32805",_"ESB_SZF_34100_34160")_ - 1 x_("ADA_ESB_32740_32805",_"ESB_ERC_33810_33890")_ - 1 x_("ADA_ESB_32740_32805",_"ESB_AJI_33490_33585")_ - 1 x_("ADA_ESB_32740_32805",_"ESB_YEI_32875_32935")_ - 1 x_("ADA_ESB_32740_32805",_"ESB_ADA_34080_34140")_ - 1 x_("ADA_ESB_32740_32805",_"ESB_VAN_33565_33660")_ - 1 x_("ADA_ESB_32740_32805",_"ESB_ADB_33930_34010")_ - 1 x_("ADA_ESB_32740_32805",_"ESB_BAL_33505_33595")_ - 1 x_("ADA_ESB_32740_32805",_"ESB_SAW_33720_33780")_ - 1 x_("ADA_ESB_32740_32805",_"ESB_GNY_34060_34135")_ - 1 x_("ADA_ESB_32740_32805",_"ESB_TZX_33480_33560")_ - 1 x_("ADA_ESB_32740_32805",_"ESB_MQM_33770_33865")_ = 0
mp_c2_SZF_ESB_32755_32815_: 1 x_("ESB_SZF_32660_32720",_"SZF_ESB_32755_32815")_ - 1 x_("SZF_ESB_32755_32815",_"ESB_MLX_32860_32935")_ - 1 x_("SZF_ESB_32755_32815",_"ESB_SAW_33480_33540")_ - 1 x_("SZF_ESB_32755_32815",_"ESB_ECN_32865_32935")_ - 1 x_("SZF_ESB_32755_32815",_"ESB_HTY_32870_32950")_ - 1 x_("SZF_ESB_32755_32815",_"ESB_SAW_33840_33900")_ - 1 x_("SZF_ESB_32755_32815",_"ESB_SZF_34100_34160")_ - 1 x_("SZF_ESB_32755_32815",_"ESB_ERC_33810_33890")_ - 1 x_("SZF_ESB_32755_32815",_"ESB_AJI_33490_33585")_ - 1 x_("SZF_ESB_32755_32815",_"ESB_YEI_32875_32935")_ - 1 x_("SZF_ESB_32755_32815",_"ESB_ADA_34080_34140")_ - 1 x_("SZF_ESB_32755_32815",_"ESB_VAN_33565_33660")_ - 1 x_("SZF_ESB_32755_32815",_"ESB_ADB_33930_34010")_ - 1 x_("SZF_ESB_32755_32815",_"ESB_BAL_33505_33595")_ - 1 x_("SZF_ESB_32755_32815",_"ESB_SAW_33720_33780")_ - 1 x_("SZF_ESB_32755_32815",_"ESB_GNY_34060_34135")_ - 1 x_("SZF_ESB_32755_32815",_"ESB_TZX_33480_33560")_ - 1 x_("SZF_ESB_32755_32815",_"ESB_MQM_33770_33865")_ = 0
mp_c2_KYA_SAW_32775_32845_: 1 x_("SAW_KYA_32670_32740",_"KYA_SAW_32775_32845")_ - 1 x_("KYA_SAW_32775_32845",_"SAW_ADB_34050_34110")_ - 1 x_("KYA_SAW_32775_32845",_"SAW_ESB_33960_34020")_ - 1 x_("KYA_SAW_32775_32845",_"SAW_TZX_33585_33685")_ - 1 x_("KYA_SAW_32775_32845",_"SAW_VAS_33810_33890")_ - 1 x_("KYA_SAW_32775_32845",_"SAW_ESB_33600_33660")_ - 1 x_("KYA_SAW_32775_32845",_"SAW_AYT_33825_33890")_ - 1 x_("KYA_SAW_32775_32845",_"SAW_ADB_33360_33420")_ - 1 x_("KYA_SAW_32775_32845",_"SAW_ESB_33420_33480")_ - 1 x_("KYA_SAW_32775_32845",_"SAW_ASR_34095_34180")_ = 0
mp_c2_ASR_SAW_32775_32865_: 1 x_("SAW_ASR_32655_32740",_"ASR_SAW_32775_32865")_ - 1 x_("ASR_SAW_32775_32865",_"SAW_ADB_34050_34110")_ - 1 x_("ASR_SAW_32775_32865",_"SAW_ESB_33960_34020")_ - 1 x_("ASR_SAW_32775_32865",_"SAW_TZX_33585_33685")_ - 1 x_("ASR_SAW_32775_32865",_"SAW_VAS_33810_33890")_ - 1 x_("ASR_SAW_32775_32865",_"SAW_ESB_33600_33660")_ - 1 x_("ASR_SAW_32775_32865",_"SAW_AYT_33825_33890")_ - 1 x_("ASR_SAW_32775_32865",_"SAW_ADB_33360_33420")_ - 1 x_("ASR_SAW_32775_32865",_"SAW_ESB_33420_33480")_ - 1 x_("ASR_SAW_32775_32865",_"SAW_ASR_34095_34180")_ = 0
mp_c2_ESB_MLX_32860_32935_: 1 x_("N125",_"ESB_MLX_32860_32935")_ + 1 x_("ECN_ESB_31920_31990",_"ESB_MLX_32860_32935")_ + 1 x_("YEI_ESB_31920_31980",_"ESB_MLX_32860_32935")_ + 1 x_("MLX_ESB_31920_31995",_"ESB_MLX_32860_32935")_ + 1 x_("HTY_ESB_31920_31995",_"ESB_MLX_32860_32935")_ + 1 x_("SAW_ESB_31980_32040",_"ESB_MLX_32860_32935")_ + 1 x_("TZX_ESB_32155_32235",_"ESB_MLX_32860_32935")_ + 1 x_("SAW_ESB_32160_32220",_"ESB_MLX_32860_32935")_ + 1 x_("AJI_ESB_32180_32285",_"ESB_MLX_32860_32935")_ + 1 x_("BAL_ESB_32190_32285",_"ESB_MLX_32860_32935")_ + 1 x_("VAN_ESB_32255_32360",_"ESB_MLX_32860_32935")_ + 1 x_("MQM_ESB_32460_32555",_"ESB_MLX_32860_32935")_ + 1 x_("ERC_ESB_32485_32565",_"ESB_MLX_32860_32935")_ + 1 x_("SAW_ESB_32520_32580",_"ESB_MLX_32860_32935")_ + 1 x_("ADB_ESB_32605_32680",_"ESB_MLX_32860_32935")_ + 1 x_("GNY_ESB_32730_32810",_"ESB_MLX_32860_32935")_ + 1 x_("ECN_ESB_32735_32805",_"ESB_MLX_32860_32935")_ + 1 x_("ADA_ESB_32740_32805",_"ESB_MLX_32860_32935")_ + 1 x_("SZF_ESB_32755_32815",_"ESB_MLX_32860_32935")_ - 1 x_("ESB_MLX_32860_32935",_"MLX_ESB_33360_33435")_ = 0
mp_c2_ESB_ECN_32865_32935_: 1 x_("N125",_"ESB_ECN_32865_32935")_ + 1 x_("ECN_ESB_31920_31990",_"ESB_ECN_32865_32935")_ + 1 x_("YEI_ESB_31920_31980",_"ESB_ECN_32865_32935")_ + 1 x_("MLX_ESB_31920_31995",_"ESB_ECN_32865_32935")_ + 1 x_("HTY_ESB_31920_31995",_"ESB_ECN_32865_32935")_ + 1 x_("SAW_ESB_31980_32040",_"ESB_ECN_32865_32935")_ + 1 x_("TZX_ESB_32155_32235",_"ESB_ECN_32865_32935")_ + 1 x_("SAW_ESB_32160_32220",_"ESB_ECN_32865_32935")_ + 1 x_("AJI_ESB_32180_32285",_"ESB_ECN_32865_32935")_ + 1 x_("BAL_ESB_32190_32285",_"ESB_ECN_32865_32935")_ + 1 x_("VAN_ESB_32255_32360",_"ESB_ECN_32865_32935")_ + 1 x_("MQM_ESB_32460_32555",_"ESB_ECN_32865_32935")_ + 1 x_("ERC_ESB_32485_32565",_"ESB_ECN_32865_32935")_ + 1 x_("SAW_ESB_32520_32580",_"ESB_ECN_32865_32935")_ + 1 x_("ADB_ESB_32605_32680",_"ESB_ECN_32865_32935")_ + 1 x_("GNY_ESB_32730_32810",_"ESB_ECN_32865_32935")_ + 1 x_("ECN_ESB_32735_32805",_"ESB_ECN_32865_32935")_ + 1 x_("ADA_ESB_32740_32805",_"ESB_ECN_32865_32935")_ + 1 x_("SZF_ESB_32755_32815",_"ESB_ECN_32865_32935")_ - 1 x_("ESB_ECN_32865_32935",_"ECN_ESB_33360_33430")_ = 0
mp_c2_ESB_HTY_32870_32950_: 1 x_("N125",_"ESB_HTY_32870_32950")_ + 1 x_("ECN_ESB_31920_31990",_"ESB_HTY_32870_32950")_ + 1 x_("YEI_ESB_31920_31980",_"ESB_HTY_32870_32950")_ + 1 x_("MLX_ESB_31920_31995",_"ESB_HTY_32870_32950")_ + 1 x_("HTY_ESB_31920_31995",_"ESB_HTY_32870_32950")_ + 1 x_("SAW_ESB_31980_32040",_"ESB_HTY_32870_32950")_ + 1 x_("TZX_ESB_32155_32235",_"ESB_HTY_32870_32950")_ + 1 x_("SAW_ESB_32160_32220",_"ESB_HTY_32870_32950")_ + 1 x_("AJI_ESB_32180_32285",_"ESB_HTY_32870_32950")_ + 1 x_("BAL_ESB_32190_32285",_"ESB_HTY_32870_32950")_ + 1 x_("VAN_ESB_32255_32360",_"ESB_HTY_32870_32950")_ + 1 x_("MQM_ESB_32460_32555",_"ESB_HTY_32870_32950")_ + 1 x_("ERC_ESB_32485_32565",_"ESB_HTY_32870_32950")_ + 1 x_("SAW_ESB_32520_32580",_"ESB_HTY_32870_32950")_ + 1 x_("ADB_ESB_32605_32680",_"ESB_HTY_32870_32950")_ + 1 x_("GNY_ESB_32730_32810",_"ESB_HTY_32870_32950")_ + 1 x_("ECN_ESB_32735_32805",_"ESB_HTY_32870_32950")_ + 1 x_("ADA_ESB_32740_32805",_"ESB_HTY_32870_32950")_ + 1 x_("SZF_ESB_32755_32815",_"ESB_HTY_32870_32950")_ - 1 x_("ESB_HTY_32870_32950",_"HTY_ESB_33360_33435")_ = 0
mp_c2_ESB_YEI_32875_32935_: 1 x_("N125",_"ESB_YEI_32875_32935")_ + 1 x_("ECN_ESB_31920_31990",_"ESB_YEI_32875_32935")_ + 1 x_("YEI_ESB_31920_31980",_"ESB_YEI_32875_32935")_ + 1 x_("MLX_ESB_31920_31995",_"ESB_YEI_32875_32935")_ + 1 x_("HTY_ESB_31920_31995",_"ESB_YEI_32875_32935")_ + 1 x_("SAW_ESB_31980_32040",_"ESB_YEI_32875_32935")_ + 1 x_("TZX_ESB_32155_32235",_"ESB_YEI_32875_32935")_ + 1 x_("SAW_ESB_32160_32220",_"ESB_YEI_32875_32935")_ + 1 x_("AJI_ESB_32180_32285",_"ESB_YEI_32875_32935")_ + 1 x_("BAL_ESB_32190_32285",_"ESB_YEI_32875_32935")_ + 1 x_("VAN_ESB_32255_32360",_"ESB_YEI_32875_32935")_ + 1 x_("MQM_ESB_32460_32555",_"ESB_YEI_32875_32935")_ + 1 x_("ERC_ESB_32485_32565",_"ESB_YEI_32875_32935")_ + 1 x_("SAW_ESB_32520_32580",_"ESB_YEI_32875_32935")_ + 1 x_("ADB_ESB_32605_32680",_"ESB_YEI_32875_32935")_ + 1 x_("GNY_ESB_32730_32810",_"ESB_YEI_32875_32935")_ + 1 x_("ECN_ESB_32735_32805",_"ESB_YEI_32875_32935")_ + 1 x_("ADA_ESB_32740_32805",_"ESB_YEI_32875_32935")_ + 1 x_("SZF_ESB_32755_32815",_"ESB_YEI_32875_32935")_ - 1 x_("ESB_YEI_32875_32935",_"YEI_ESB_33360_33420")_ = 0
mp_c2_SAW_ADB_33360_33420_: 1 x_("N123",_"SAW_ADB_33360_33420")_ + 1 x_("N126",_"SAW_ADB_33360_33420")_ + 1 x_("N128",_"SAW_ADB_33360_33420")_ + 1 x_("ADB_SAW_32015_32075",_"SAW_ADB_33360_33420")_ + 1 x_("ESB_SAW_32040_32100",_"SAW_ADB_33360_33420")_ + 1 x_("TZX_SAW_32280_32385",_"SAW_ADB_33360_33420")_ + 1 x_("ESB_SAW_32280_32340",_"SAW_ADB_33360_33420")_ + 1 x_("ESB_SAW_32400_32460",_"SAW_ADB_33360_33420")_ + 1 x_("VAS_SAW_32485_32565",_"SAW_ADB_33360_33420")_ + 1 x_("AYT_SAW_32490_32555",_"SAW_ADB_33360_33420")_ + 1 x_("ADB_SAW_32705_32765",_"SAW_ADB_33360_33420")_ + 1 x_("KYA_SAW_32775_32845",_"SAW_ADB_33360_33420")_ + 1 x_("ASR_SAW_32775_32865",_"SAW_ADB_33360_33420")_ - 1 x_("SAW_ADB_33360_33420",_"ADB_SAW_33455_33515")_ - 1 x_("SAW_ADB_33360_33420",_"ADB_SAW_34145_34205")_ - 1 x_("SAW_ADB_33360_33420",_"ADB_ESB_34045_34120")_ = 0
mp_c2_ECN_ESB_33360_33430_: 1 x_("N124",_"ECN_ESB_33360_33430")_ + 1 x_("ESB_ECN_32340_32410",_"ECN_ESB_33360_33430")_ + 1 x_("HTY_ECN_32625_32690",_"ECN_ESB_33360_33430")_ + 1 x_("ESB_ECN_32865_32935",_"ECN_ESB_33360_33430")_ - 1 x_("ECN_ESB_33360_33430",_"ESB_ECN_34305_34375")_ - 1 x_("ECN_ESB_33360_33430",_"ESB_SAW_33480_33540")_ - 1 x_("ECN_ESB_33360_33430",_"ESB_SAW_33840_33900")_ - 1 x_("ECN_ESB_33360_33430",_"ESB_SZF_34100_34160")_ - 1 x_("ECN_ESB_33360_33430",_"ESB_ERC_33810_33890")_ - 1 x_("ECN_ESB_33360_33430",_"ESB_AJI_33490_33585")_ - 1 x_("ECN_ESB_33360_33430",_"ESB_HTY_34310_34390")_ - 1 x_("ECN_ESB_33360_33430",_"ESB_MLX_34300_34375")_ - 1 x_("ECN_ESB_33360_33430",_"ESB_ADA_34080_34140")_ - 1 x_("ECN_ESB_33360_33430",_"ESB_VAN_33565_33660")_ - 1 x_("ECN_ESB_33360_33430",_"ESB_ADB_33930_34010")_ - 1 x_("ECN_ESB_33360_33430",_"ESB_BAL_33505_33595")_ - 1 x_("ECN_ESB_33360_33430",_"ESB_SAW_33720_33780")_ - 1 x_("ECN_ESB_33360_33430",_"ESB_YEI_34315_34375")_ - 1 x_("ECN_ESB_33360_33430",_"ESB_GNY_34060_34135")_ - 1 x_("ECN_ESB_33360_33430",_"ESB_TZX_33480_33560")_ - 1 x_("ECN_ESB_33360_33430",_"ESB_MQM_33770_33865")_ = 0
mp_c2_YEI_ESB_33360_33420_: 1 x_("N122",_"YEI_ESB_33360_33420")_ + 1 x_("ESB_YEI_32875_32935",_"YEI_ESB_33360_33420")_ - 1 x_("YEI_ESB_33360_33420",_"ESB_ECN_34305_34375")_ - 1 x_("YEI_ESB_33360_33420",_"ESB_SAW_33480_33540")_ - 1 x_("YEI_ESB_33360_33420",_"ESB_SAW_33840_33900")_ - 1 x_("YEI_ESB_33360_33420",_"ESB_SZF_34100_34160")_ - 1 x_("YEI_ESB_33360_33420",_"ESB_ERC_33810_33890")_ - 1 x_("YEI_ESB_33360_33420",_"ESB_AJI_33490_33585")_ - 1 x_("YEI_ESB_33360_33420",_"ESB_HTY_34310_34390")_ - 1 x_("YEI_ESB_33360_33420",_"ESB_MLX_34300_34375")_ - 1 x_("YEI_ESB_33360_33420",_"ESB_ADA_34080_34140")_ - 1 x_("YEI_ESB_33360_33420",_"ESB_VAN_33565_33660")_ - 1 x_("YEI_ESB_33360_33420",_"ESB_ADB_33930_34010")_ - 1 x_("YEI_ESB_33360_33420",_"ESB_BAL_33505_33595")_ - 1 x_("YEI_ESB_33360_33420",_"ESB_SAW_33720_33780")_ - 1 x_("YEI_ESB_33360_33420",_"ESB_YEI_34315_34375")_ - 1 x_("YEI_ESB_33360_33420",_"ESB_GNY_34060_34135")_ - 1 x_("YEI_ESB_33360_33420",_"ESB_TZX_33480_33560")_ - 1 x_("YEI_ESB_33360_33420",_"ESB_MQM_33770_33865")_ = 0
mp_c2_MLX_ESB_33360_33435_: 1 x_("N121",_"MLX_ESB_33360_33435")_ + 1 x_("ESB_MLX_32860_32935",_"MLX_ESB_33360_33435")_ - 1 x_("MLX_ESB_33360_33435",_"ESB_ECN_34305_34375")_ - 1 x_("MLX_ESB_33360_33435",_"ESB_SAW_33480_33540")_ - 1 x_("MLX_ESB_33360_33435",_"ESB_SAW_33840_33900")_ - 1 x_("MLX_ESB_33360_33435",_"ESB_SZF_34100_34160")_ - 1 x_("MLX_ESB_33360_33435",_"ESB_ERC_33810_33890")_ - 1 x_("MLX_ESB_33360_33435",_"ESB_AJI_33490_33585")_ - 1 x_("MLX_ESB_33360_33435",_"ESB_HTY_34310_34390")_ - 1 x_("MLX_ESB_33360_33435",_"ESB_MLX_34300_34375")_ - 1 x_("MLX_ESB_33360_33435",_"ESB_ADA_34080_34140")_ - 1 x_("MLX_ESB_33360_33435",_"ESB_VAN_33565_33660")_ - 1 x_("MLX_ESB_33360_33435",_"ESB_ADB_33930_34010")_ - 1 x_("MLX_ESB_33360_33435",_"ESB_BAL_33505_33595")_ - 1 x_("MLX_ESB_33360_33435",_"ESB_SAW_33720_33780")_ - 1 x_("MLX_ESB_33360_33435",_"ESB_YEI_34315_34375")_ - 1 x_("MLX_ESB_33360_33435",_"ESB_GNY_34060_34135")_ - 1 x_("MLX_ESB_33360_33435",_"ESB_TZX_33480_33560")_ - 1 x_("MLX_ESB_33360_33435",_"ESB_MQM_33770_33865")_ = 0
mp_c2_HTY_ESB_33360_33435_: 1 x_("N127",_"HTY_ESB_33360_33435")_ + 1 x_("ECN_HTY_32520_32585",_"HTY_ESB_33360_33435")_ + 1 x_("ESB_HTY_32870_32950",_"HTY_ESB_33360_33435")_ - 1 x_("HTY_ESB_33360_33435",_"ESB_ECN_34305_34375")_ - 1 x_("HTY_ESB_33360_33435",_"ESB_SAW_33480_33540")_ - 1 x_("HTY_ESB_33360_33435",_"ESB_SAW_33840_33900")_ - 1 x_("HTY_ESB_33360_33435",_"ESB_SZF_34100_34160")_ - 1 x_("HTY_ESB_33360_33435",_"ESB_ERC_33810_33890")_ - 1 x_("HTY_ESB_33360_33435",_"ESB_AJI_33490_33585")_ - 1 x_("HTY_ESB_33360_33435",_"ESB_HTY_34310_34390")_ - 1 x_("HTY_ESB_33360_33435",_"ESB_MLX_34300_34375")_ - 1 x_("HTY_ESB_33360_33435",_"ESB_ADA_34080_34140")_ - 1 x_("HTY_ESB_33360_33435",_"ESB_VAN_33565_33660")_ - 1 x_("HTY_ESB_33360_33435",_"ESB_ADB_33930_34010")_ - 1 x_("HTY_ESB_33360_33435",_"ESB_BAL_33505_33595")_ - 1 x_("HTY_ESB_33360_33435",_"ESB_SAW_33720_33780")_ - 1 x_("HTY_ESB_33360_33435",_"ESB_YEI_34315_34375")_ - 1 x_("HTY_ESB_33360_33435",_"ESB_GNY_34060_34135")_ - 1 x_("HTY_ESB_33360_33435",_"ESB_TZX_33480_33560")_ - 1 x_("HTY_ESB_33360_33435",_"ESB_MQM_33770_33865")_ = 0
mp_c2_SAW_ESB_33420_33480_: 1 x_("ADB_SAW_32015_32075",_"SAW_ESB_33420_33480")_ + 1 x_("ESB_SAW_32040_32100",_"SAW_ESB_33420_33480")_ + 1 x_("TZX_SAW_32280_32385",_"SAW_ESB_33420_33480")_ + 1 x_("ESB_SAW_32280_32340",_"SAW_ESB_33420_33480")_ + 1 x_("ESB_SAW_32400_32460",_"SAW_ESB_33420_33480")_ + 1 x_("VAS_SAW_32485_32565",_"SAW_ESB_33420_33480")_ + 1 x_("AYT_SAW_32490_32555",_"SAW_ESB_33420_33480")_ + 1 x_("ADB_SAW_32705_32765",_"SAW_ESB_33420_33480")_ + 1 x_("KYA_SAW_32775_32845",_"SAW_ESB_33420_33480")_ + 1 x_("ASR_SAW_32775_32865",_"SAW_ESB_33420_33480")_ - 1 x_("SAW_ESB_33420_33480",_"ESB_ECN_34305_34375")_ - 1 x_("SAW_ESB_33420_33480",_"ESB_SAW_33840_33900")_ - 1 x_("SAW_ESB_33420_33480",_"ESB_SAW_34920_34980")_ - 1 x_("SAW_ESB_33420_33480",_"ESB_SZF_34100_34160")_ - 1 x_("SAW_ESB_33420_33480",_"ESB_ERC_33810_33890")_ - 1 x_("SAW_ESB_33420_33480",_"ESB_HTY_34310_34390")_ - 1 x_("SAW_ESB_33420_33480",_"ESB_MLX_34300_34375")_ - 1 x_("SAW_ESB_33420_33480",_"ESB_ADA_34080_34140")_ - 1 x_("SAW_ESB_33420_33480",_"ESB_TZX_34920_35000")_ - 1 x_("SAW_ESB_33420_33480",_"ESB_VAN_33565_33660")_ - 1 x_("SAW_ESB_33420_33480",_"ESB_ADB_33930_34010")_ - 1 x_("SAW_ESB_33420_33480",_"ESB_SAW_33720_33780")_ - 1 x_("SAW_ESB_33420_33480",_"ESB_YEI_34315_34375")_ - 1 x_("SAW_ESB_33420_33480",_"ESB_GNY_34060_34135")_ - 1 x_("SAW_ESB_33420_33480",_"ESB_MQM_33770_33865")_ = 0
mp_c2_ADB_SAW_33455_33515_: 1 x_("ESB_ADB_32490_32570",_"ADB_SAW_33455_33515")_ + 1 x_("SAW_ADB_32610_32670",_"ADB_SAW_33455_33515")_ + 1 x_("SAW_ADB_33360_33420",_"ADB_SAW_33455_33515")_ - 1 x_("ADB_SAW_33455_33515",_"SAW_ADB_34050_34110")_ - 1 x_("ADB_SAW_33455_33515",_"SAW_ESB_33960_34020")_ - 1 x_("ADB_SAW_33455_33515",_"SAW_TZX_33585_33685")_ - 1 x_("ADB_SAW_33455_33515",_"SAW_ADB_34800_34860")_ - 1 x_("ADB_SAW_33455_33515",_"SAW_VAS_33810_33890")_ - 1 x_("ADB_SAW_33455_33515",_"SAW_ESB_33600_33660")_ - 1 x_("ADB_SAW_33455_33515",_"SAW_AYT_33825_33890")_ - 1 x_("ADB_SAW_33455_33515",_"SAW_ESB_34860_34920")_ - 1 x_("ADB_SAW_33455_33515",_"SAW_ASR_34095_34180")_ = 0
mp_c2_ESB_SAW_33480_33540_: 1 x_("SAW_ESB_31980_32040",_"ESB_SAW_33480_33540")_ + 1 x_("TZX_ESB_32155_32235",_"ESB_SAW_33480_33540")_ + 1 x_("SAW_ESB_32160_32220",_"ESB_SAW_33480_33540")_ + 1 x_("AJI_ESB_32180_32285",_"ESB_SAW_33480_33540")_ + 1 x_("BAL_ESB_32190_32285",_"ESB_SAW_33480_33540")_ + 1 x_("VAN_ESB_32255_32360",_"ESB_SAW_33480_33540")_ + 1 x_("MQM_ESB_32460_32555",_"ESB_SAW_33480_33540")_ + 1 x_("ERC_ESB_32485_32565",_"ESB_SAW_33480_33540")_ + 1 x_("SAW_ESB_32520_32580",_"ESB_SAW_33480_33540")_ + 1 x_("ADB_ESB_32605_32680",_"ESB_SAW_33480_33540")_ + 1 x_("GNY_ESB_32730_32810",_"ESB_SAW_33480_33540")_ + 1 x_("ECN_ESB_32735_32805",_"ESB_SAW_33480_33540")_ + 1 x_("ADA_ESB_32740_32805",_"ESB_SAW_33480_33540")_ + 1 x_("SZF_ESB_32755_32815",_"ESB_SAW_33480_33540")_ + 1 x_("ECN_ESB_33360_33430",_"ESB_SAW_33480_33540")_ + 1 x_("YEI_ESB_33360_33420",_"ESB_SAW_33480_33540")_ + 1 x_("MLX_ESB_33360_33435",_"ESB_SAW_33480_33540")_ + 1 x_("HTY_ESB_33360_33435",_"ESB_SAW_33480_33540")_ - 1 x_("ESB_SAW_33480_33540",_"SAW_ADB_34050_34110")_ - 1 x_("ESB_SAW_33480_33540",_"SAW_ESB_33960_34020")_ - 1 x_("ESB_SAW_33480_33540",_"SAW_TZX_33585_33685")_ - 1 x_("ESB_SAW_33480_33540",_"SAW_ADB_34800_34860")_ - 1 x_("ESB_SAW_33480_33540",_"SAW_VAS_33810_33890")_ - 1 x_("ESB_SAW_33480_33540",_"SAW_ESB_33600_33660")_ - 1 x_("ESB_SAW_33480_33540",_"SAW_AYT_33825_33890")_ - 1 x_("ESB_SAW_33480_33540",_"SAW_ESB_34860_34920")_ - 1 x_("ESB_SAW_33480_33540",_"SAW_ASR_34095_34180")_ = 0
mp_c2_ESB_TZX_33480_33560_: 1 x_("SAW_ESB_31980_32040",_"ESB_TZX_33480_33560")_ + 1 x_("TZX_ESB_32155_32235",_"ESB_TZX_33480_33560")_ + 1 x_("SAW_ESB_32160_32220",_"ESB_TZX_33480_33560")_ + 1 x_("AJI_ESB_32180_32285",_"ESB_TZX_33480_33560")_ + 1 x_("BAL_ESB_32190_32285",_"ESB_TZX_33480_33560")_ + 1 x_("VAN_ESB_32255_32360",_"ESB_TZX_33480_33560")_ + 1 x_("MQM_ESB_32460_32555",_"ESB_TZX_33480_33560")_ + 1 x_("ERC_ESB_32485_32565",_"ESB_TZX_33480_33560")_ + 1 x_("SAW_ESB_32520_32580",_"ESB_TZX_33480_33560")_ + 1 x_("ADB_ESB_32605_32680",_"ESB_TZX_33480_33560")_ + 1 x_("GNY_ESB_32730_32810",_"ESB_TZX_33480_33560")_ + 1 x_("ECN_ESB_32735_32805",_"ESB_TZX_33480_33560")_ + 1 x_("ADA_ESB_32740_32805",_"ESB_TZX_33480_33560")_ + 1 x_("SZF_ESB_32755_32815",_"ESB_TZX_33480_33560")_ + 1 x_("ECN_ESB_33360_33430",_"ESB_TZX_33480_33560")_ + 1 x_("YEI_ESB_33360_33420",_"ESB_TZX_33480_33560")_ + 1 x_("MLX_ESB_33360_33435",_"ESB_TZX_33480_33560")_ + 1 x_("HTY_ESB_33360_33435",_"ESB_TZX_33480_33560")_ - 1 x_("ESB_TZX_33480_33560",_"TZX_ESB_33595_33675")_ - 1 x_("ESB_TZX_33480_33560",_"TZX_SAW_33720_33825")_ = 0
mp_c2_ESB_AJI_33490_33585_: 1 x_("TZX_ESB_32155_32235",_"ESB_AJI_33490_33585")_ + 1 x_("SAW_ESB_32160_32220",_"ESB_AJI_33490_33585")_ + 1 x_("AJI_ESB_32180_32285",_"ESB_AJI_33490_33585")_ + 1 x_("BAL_ESB_32190_32285",_"ESB_AJI_33490_33585")_ + 1 x_("VAN_ESB_32255_32360",_"ESB_AJI_33490_33585")_ + 1 x_("MQM_ESB_32460_32555",_"ESB_AJI_33490_33585")_ + 1 x_("ERC_ESB_32485_32565",_"ESB_AJI_33490_33585")_ + 1 x_("SAW_ESB_32520_32580",_"ESB_AJI_33490_33585")_ + 1 x_("ADB_ESB_32605_32680",_"ESB_AJI_33490_33585")_ + 1 x_("GNY_ESB_32730_32810",_"ESB_AJI_33490_33585")_ + 1 x_("ECN_ESB_32735_32805",_"ESB_AJI_33490_33585")_ + 1 x_("ADA_ESB_32740_32805",_"ESB_AJI_33490_33585")_ + 1 x_("SZF_ESB_32755_32815",_"ESB_AJI_33490_33585")_ + 1 x_("ECN_ESB_33360_33430",_"ESB_AJI_33490_33585")_ + 1 x_("YEI_ESB_33360_33420",_"ESB_AJI_33490_33585")_ + 1 x_("MLX_ESB_33360_33435",_"ESB_AJI_33490_33585")_ + 1 x_("HTY_ESB_33360_33435",_"ESB_AJI_33490_33585")_ - 1 x_("ESB_AJI_33490_33585",_"AJI_ESB_33620_33725")_ = 0
mp_c2_ESB_BAL_33505_33595_: 1 x_("TZX_ESB_32155_32235",_"ESB_BAL_33505_33595")_ + 1 x_("SAW_ESB_32160_32220",_"ESB_BAL_33505_33595")_ + 1 x_("AJI_ESB_32180_32285",_"ESB_BAL_33505_33595")_ + 1 x_("BAL_ESB_32190_32285",_"ESB_BAL_33505_33595")_ + 1 x_("VAN_ESB_32255_32360",_"ESB_BAL_33505_33595")_ + 1 x_("MQM_ESB_32460_32555",_"ESB_BAL_33505_33595")_ + 1 x_("ERC_ESB_32485_32565",_"ESB_BAL_33505_33595")_ + 1 x_("SAW_ESB_32520_32580",_"ESB_BAL_33505_33595")_ + 1 x_("ADB_ESB_32605_32680",_"ESB_BAL_33505_33595")_ + 1 x_("GNY_ESB_32730_32810",_"ESB_BAL_33505_33595")_ + 1 x_("ECN_ESB_32735_32805",_"ESB_BAL_33505_33595")_ + 1 x_("ADA_ESB_32740_32805",_"ESB_BAL_33505_33595")_ + 1 x_("SZF_ESB_32755_32815",_"ESB_BAL_33505_33595")_ + 1 x_("ECN_ESB_33360_33430",_"ESB_BAL_33505_33595")_ + 1 x_("YEI_ESB_33360_33420",_"ESB_BAL_33505_33595")_ + 1 x_("MLX_ESB_33360_33435",_"ESB_BAL_33505_33595")_ + 1 x_("HTY_ESB_33360_33435",_"ESB_BAL_33505_33595")_ - 1 x_("ESB_BAL_33505_33595",_"BAL_ESB_33630_33725")_ = 0
mp_c2_ESB_VAN_33565_33660_: 1 x_("TZX_ESB_32155_32235",_"ESB_VAN_33565_33660")_ + 1 x_("SAW_ESB_32160_32220",_"ESB_VAN_33565_33660")_ + 1 x_("AJI_ESB_32180_32285",_"ESB_VAN_33565_33660")_ + 1 x_("BAL_ESB_32190_32285",_"ESB_VAN_33565_33660")_ + 1 x_("VAN_ESB_32255_32360",_"ESB_VAN_33565_33660")_ + 1 x_("MQM_ESB_32460_32555",_"ESB_VAN_33565_33660")_ + 1 x_("ERC_ESB_32485_32565",_"ESB_VAN_33565_33660")_ + 1 x_("SAW_ESB_32520_32580",_"ESB_VAN_33565_33660")_ + 1 x_("ADB_ESB_32605_32680",_"ESB_VAN_33565_33660")_ + 1 x_("GNY_ESB_32730_32810",_"ESB_VAN_33565_33660")_ + 1 x_("ECN_ESB_32735_32805",_"ESB_VAN_33565_33660")_ + 1 x_("ADA_ESB_32740_32805",_"ESB_VAN_33565_33660")_ + 1 x_("SZF_ESB_32755_32815",_"ESB_VAN_33565_33660")_ + 1 x_("ECN_ESB_33360_33430",_"ESB_VAN_33565_33660")_ + 1 x_("YEI_ESB_33360_33420",_"ESB_VAN_33565_33660")_ + 1 x_("MLX_ESB_33360_33435",_"ESB_VAN_33565_33660")_ + 1 x_("HTY_ESB_33360_33435",_"ESB_VAN_33565_33660")_ + 1 x_("SAW_ESB_33420_33480",_"ESB_VAN_33565_33660")_ - 1 x_("ESB_VAN_33565_33660",_"VAN_ESB_33695_33800")_ = 0
mp_c2_SAW_TZX_33585_33685_: 1 x_("TZX_SAW_32280_32385",_"SAW_TZX_33585_33685")_ + 1 x_("ESB_SAW_32280_32340",_"SAW_TZX_33585_33685")_ + 1 x_("ESB_SAW_32400_32460",_"SAW_TZX_33585_33685")_ + 1 x_("VAS_SAW_32485_32565",_"SAW_TZX_33585_33685")_ + 1 x_("AYT_SAW_32490_32555",_"SAW_TZX_33585_33685")_ + 1 x_("ADB_SAW_32705_32765",_"SAW_TZX_33585_33685")_ + 1 x_("KYA_SAW_32775_32845",_"SAW_TZX_33585_33685")_ + 1 x_("ASR_SAW_32775_32865",_"SAW_TZX_33585_33685")_ + 1 x_("ADB_SAW_33455_33515",_"SAW_TZX_33585_33685")_ + 1 x_("ESB_SAW_33480_33540",_"SAW_TZX_33585_33685")_ - 1 x_("SAW_TZX_33585_33685",_"TZX_ESB_35035_35115")_ - 1 x_("SAW_TZX_33585_33685",_"TZX_SAW_33720_33825")_ = 0
mp_c2_TZX_ESB_33595_33675_: 1 x_("SAW_TZX_32145_32245",_"TZX_ESB_33595_33675")_ + 1 x_("ESB_TZX_33480_33560",_"TZX_ESB_33595_33675")_ - 1 x_("TZX_ESB_33595_33675",_"ESB_ECN_34305_34375")_ - 1 x_("TZX_ESB_33595_33675",_"ESB_BAL_34945_35035")_ - 1 x_("TZX_ESB_33595_33675",_"ESB_SAW_33840_33900")_ - 1 x_("TZX_ESB_33595_33675",_"ESB_SAW_34920_34980")_ - 1 x_("TZX_ESB_33595_33675",_"ESB_SZF_34100_34160")_ - 1 x_("TZX_ESB_33595_33675",_"ESB_ERC_33810_33890")_ - 1 x_("TZX_ESB_33595_33675",_"ESB_HTY_34310_34390")_ - 1 x_("TZX_ESB_33595_33675",_"ESB_MLX_34300_34375")_ - 1 x_("TZX_ESB_33595_33675",_"ESB_AYT_35100_35165")_ - 1 x_("TZX_ESB_33595_33675",_"ESB_ADA_34080_34140")_ - 1 x_("TZX_ESB_33595_33675",_"ESB_TZX_34920_35000")_ - 1 x_("TZX_ESB_33595_33675",_"ESB_AJI_34930_35025")_ - 1 x_("TZX_ESB_33595_33675",_"ESB_VAN_35005_35100")_ - 1 x_("TZX_ESB_33595_33675",_"ESB_ADB_33930_34010")_ - 1 x_("TZX_ESB_33595_33675",_"ESB_SAW_33720_33780")_ - 1 x_("TZX_ESB_33595_33675",_"ESB_YEI_34315_34375")_ - 1 x_("TZX_ESB_33595_33675",_"ESB_GNY_34060_34135")_ - 1 x_("TZX_ESB_33595_33675",_"ESB_MQM_33770_33865")_ = 0
mp_c2_SAW_ESB_33600_33660_: 1 x_("TZX_SAW_32280_32385",_"SAW_ESB_33600_33660")_ + 1 x_("ESB_SAW_32280_32340",_"SAW_ESB_33600_33660")_ + 1 x_("ESB_SAW_32400_32460",_"SAW_ESB_33600_33660")_ + 1 x_("VAS_SAW_32485_32565",_"SAW_ESB_33600_33660")_ + 1 x_("AYT_SAW_32490_32555",_"SAW_ESB_33600_33660")_ + 1 x_("ADB_SAW_32705_32765",_"SAW_ESB_33600_33660")_ + 1 x_("KYA_SAW_32775_32845",_"SAW_ESB_33600_33660")_ + 1 x_("ASR_SAW_32775_32865",_"SAW_ESB_33600_33660")_ + 1 x_("ADB_SAW_33455_33515",_"SAW_ESB_33600_33660")_ + 1 x_("ESB_SAW_33480_33540",_"SAW_ESB_33600_33660")_ - 1 x_("SAW_ESB_33600_33660",_"ESB_ECN_34305_34375")_ - 1 x_("SAW_ESB_33600_33660",_"ESB_BAL_34945_35035")_ - 1 x_("SAW_ESB_33600_33660",_"ESB_SAW_33840_33900")_ - 1 x_("SAW_ESB_33600_33660",_"ESB_SAW_34920_34980")_ - 1 x_("SAW_ESB_33600_33660",_"ESB_SZF_34100_34160")_ - 1 x_("SAW_ESB_33600_33660",_"ESB_ERC_33810_33890")_ - 1 x_("SAW_ESB_33600_33660",_"ESB_HTY_34310_34390")_ - 1 x_("SAW_ESB_33600_33660",_"ESB_MLX_34300_34375")_ - 1 x_("SAW_ESB_33600_33660",_"ESB_AYT_35100_35165")_ - 1 x_("SAW_ESB_33600_33660",_"ESB_ADA_34080_34140")_ - 1 x_("SAW_ESB_33600_33660",_"ESB_TZX_34920_35000")_ - 1 x_("SAW_ESB_33600_33660",_"ESB_AJI_34930_35025")_ - 1 x_("SAW_ESB_33600_33660",_"ESB_VAN_35005_35100")_ - 1 x_("SAW_ESB_33600_33660",_"ESB_ADB_33930_34010")_ - 1 x_("SAW_ESB_33600_33660",_"ESB_SAW_33720_33780")_ - 1 x_("SAW_ESB_33600_33660",_"ESB_YEI_34315_34375")_ - 1 x_("SAW_ESB_33600_33660",_"ESB_GNY_34060_34135")_ - 1 x_("SAW_ESB_33600_33660",_"ESB_MQM_33770_33865")_ = 0
mp_c2_AJI_ESB_33620_33725_: 1 x_("ESB_AJI_33490_33585",_"AJI_ESB_33620_33725")_ - 1 x_("AJI_ESB_33620_33725",_"ESB_ECN_34305_34375")_ - 1 x_("AJI_ESB_33620_33725",_"ESB_BAL_34945_35035")_ - 1 x_("AJI_ESB_33620_33725",_"ESB_SAW_33840_33900")_ - 1 x_("AJI_ESB_33620_33725",_"ESB_SAW_34920_34980")_ - 1 x_("AJI_ESB_33620_33725",_"ESB_SZF_34100_34160")_ - 1 x_("AJI_ESB_33620_33725",_"ESB_ERC_33810_33890")_ - 1 x_("AJI_ESB_33620_33725",_"ESB_HTY_34310_34390")_ - 1 x_("AJI_ESB_33620_33725",_"ESB_MLX_34300_34375")_ - 1 x_("AJI_ESB_33620_33725",_"ESB_AYT_35100_35165")_ - 1 x_("AJI_ESB_33620_33725",_"ESB_ADA_34080_34140")_ - 1 x_("AJI_ESB_33620_33725",_"ESB_TZX_34920_35000")_ - 1 x_("AJI_ESB_33620_33725",_"ESB_AJI_34930_35025")_ - 1 x_("AJI_ESB_33620_33725",_"ESB_VAN_35005_35100")_ - 1 x_("AJI_ESB_33620_33725",_"ESB_ADB_33930_34010")_ - 1 x_("AJI_ESB_33620_33725",_"ESB_YEI_34315_34375")_ - 1 x_("AJI_ESB_33620_33725",_"ESB_GNY_34060_34135")_ - 1 x_("AJI_ESB_33620_33725",_"ESB_SAW_35160_35220")_ - 1 x_("AJI_ESB_33620_33725",_"ESB_MQM_33770_33865")_ = 0
mp_c2_BAL_ESB_33630_33725_: 1 x_("ESB_BAL_33505_33595",_"BAL_ESB_33630_33725")_ - 1 x_("BAL_ESB_33630_33725",_"ESB_ECN_34305_34375")_ - 1 x_("BAL_ESB_33630_33725",_"ESB_BAL_34945_35035")_ - 1 x_("BAL_ESB_33630_33725",_"ESB_SAW_33840_33900")_ - 1 x_("BAL_ESB_33630_33725",_"ESB_SAW_34920_34980")_ - 1 x_("BAL_ESB_33630_33725",_"ESB_SZF_34100_34160")_ - 1 x_("BAL_ESB_33630_33725",_"ESB_ERC_33810_33890")_ - 1 x_("BAL_ESB_33630_33725",_"ESB_HTY_34310_34390")_ - 1 x_("BAL_ESB_33630_33725",_"ESB_MLX_34300_34375")_ - 1 x_("BAL_ESB_33630_33725",_"ESB_AYT_35100_35165")_ - 1 x_("BAL_ESB_33630_33725",_"ESB_ADA_34080_34140")_ - 1 x_("BAL_ESB_33630_33725",_"ESB_TZX_34920_35000")_ - 1 x_("BAL_ESB_33630_33725",_"ESB_AJI_34930_35025")_ - 1 x_("BAL_ESB_33630_33725",_"ESB_VAN_35005_35100")_ - 1 x_("BAL_ESB_33630_33725",_"ESB_ADB_33930_34010")_ - 1 x_("BAL_ESB_33630_33725",_"ESB_YEI_34315_34375")_ - 1 x_("BAL_ESB_33630_33725",_"ESB_GNY_34060_34135")_ - 1 x_("BAL_ESB_33630_33725",_"ESB_SAW_35160_35220")_ - 1 x_("BAL_ESB_33630_33725",_"ESB_MQM_33770_33865")_ = 0
mp_c2_VAN_ESB_33695_33800_: 1 x_("ESB_VAN_33565_33660",_"VAN_ESB_33695_33800")_ - 1 x_("VAN_ESB_33695_33800",_"ESB_ECN_34305_34375")_ - 1 x_("VAN_ESB_33695_33800",_"ESB_BAL_34945_35035")_ - 1 x_("VAN_ESB_33695_33800",_"ESB_SAW_33840_33900")_ - 1 x_("VAN_ESB_33695_33800",_"ESB_SAW_34920_34980")_ - 1 x_("VAN_ESB_33695_33800",_"ESB_SZF_34100_34160")_ - 1 x_("VAN_ESB_33695_33800",_"ESB_HTY_34310_34390")_ - 1 x_("VAN_ESB_33695_33800",_"ESB_MLX_34300_34375")_ - 1 x_("VAN_ESB_33695_33800",_"ESB_AYT_35100_35165")_ - 1 x_("VAN_ESB_33695_33800",_"ESB_ADA_34080_34140")_ - 1 x_("VAN_ESB_33695_33800",_"ESB_TZX_34920_35000")_ - 1 x_("VAN_ESB_33695_33800",_"ESB_MQM_35210_35305")_ - 1 x_("VAN_ESB_33695_33800",_"ESB_AJI_34930_35025")_ - 1 x_("VAN_ESB_33695_33800",_"ESB_VAN_35005_35100")_ - 1 x_("VAN_ESB_33695_33800",_"ESB_ADB_33930_34010")_ - 1 x_("VAN_ESB_33695_33800",_"ESB_ECN_35220_35290")_ - 1 x_("VAN_ESB_33695_33800",_"ESB_YEI_34315_34375")_ - 1 x_("VAN_ESB_33695_33800",_"ESB_GNY_34060_34135")_ - 1 x_("VAN_ESB_33695_33800",_"ESB_SAW_35160_35220")_ = 0
mp_c2_TZX_SAW_33720_33825_: 1 x_("ESB_TZX_33480_33560",_"TZX_SAW_33720_33825")_ + 1 x_("SAW_TZX_33585_33685",_"TZX_SAW_33720_33825")_ - 1 x_("TZX_SAW_33720_33825",_"SAW_ADB_34050_34110")_ - 1 x_("TZX_SAW_33720_33825",_"SAW_ESB_33960_34020")_ - 1 x_("TZX_SAW_33720_33825",_"SAW_NAJ_35030_35170")_ - 1 x_("TZX_SAW_33720_33825",_"SAW_ESB_35040_35100")_ - 1 x_("TZX_SAW_33720_33825",_"SAW_ADB_34800_34860")_ - 1 x_("TZX_SAW_33720_33825",_"SAW_TZX_35025_35125")_ - 1 x_("TZX_SAW_33720_33825",_"SAW_AYT_35265_35330")_ - 1 x_("TZX_SAW_33720_33825",_"SAW_ESB_34860_34920")_ - 1 x_("TZX_SAW_33720_33825",_"SAW_ASR_34095_34180")_ = 0
mp_c2_ESB_SAW_33720_33780_: 1 x_("AJI_ESB_32180_32285",_"ESB_SAW_33720_33780")_ + 1 x_("BAL_ESB_32190_32285",_"ESB_SAW_33720_33780")_ + 1 x_("VAN_ESB_32255_32360",_"ESB_SAW_33720_33780")_ + 1 x_("MQM_ESB_32460_32555",_"ESB_SAW_33720_33780")_ + 1 x_("ERC_ESB_32485_32565",_"ESB_SAW_33720_33780")_ + 1 x_("SAW_ESB_32520_32580",_"ESB_SAW_33720_33780")_ + 1 x_("ADB_ESB_32605_32680",_"ESB_SAW_33720_33780")_ + 1 x_("GNY_ESB_32730_32810",_"ESB_SAW_33720_33780")_ + 1 x_("ECN_ESB_32735_32805",_"ESB_SAW_33720_33780")_ + 1 x_("ADA_ESB_32740_32805",_"ESB_SAW_33720_33780")_ + 1 x_("SZF_ESB_32755_32815",_"ESB_SAW_33720_33780")_ + 1 x_("ECN_ESB_33360_33430",_"ESB_SAW_33720_33780")_ + 1 x_("YEI_ESB_33360_33420",_"ESB_SAW_33720_33780")_ + 1 x_("MLX_ESB_33360_33435",_"ESB_SAW_33720_33780")_ + 1 x_("HTY_ESB_33360_33435",_"ESB_SAW_33720_33780")_ + 1 x_("SAW_ESB_33420_33480",_"ESB_SAW_33720_33780")_ + 1 x_("TZX_ESB_33595_33675",_"ESB_SAW_33720_33780")_ + 1 x_("SAW_ESB_33600_33660",_"ESB_SAW_33720_33780")_ - 1 x_("ESB_SAW_33720_33780",_"SAW_ADB_34050_34110")_ - 1 x_("ESB_SAW_33720_33780",_"SAW_ESB_33960_34020")_ - 1 x_("ESB_SAW_33720_33780",_"SAW_NAJ_35030_35170")_ - 1 x_("ESB_SAW_33720_33780",_"SAW_ESB_35040_35100")_ - 1 x_("ESB_SAW_33720_33780",_"SAW_ADB_34800_34860")_ - 1 x_("ESB_SAW_33720_33780",_"SAW_TZX_35025_35125")_ - 1 x_("ESB_SAW_33720_33780",_"SAW_AYT_33825_33890")_ - 1 x_("ESB_SAW_33720_33780",_"SAW_ESB_34860_34920")_ - 1 x_("ESB_SAW_33720_33780",_"SAW_ASR_34095_34180")_ = 0
mp_c2_ESB_MQM_33770_33865_: 1 x_("VAN_ESB_32255_32360",_"ESB_MQM_33770_33865")_ + 1 x_("MQM_ESB_32460_32555",_"ESB_MQM_33770_33865")_ + 1 x_("ERC_ESB_32485_32565",_"ESB_MQM_33770_33865")_ + 1 x_("SAW_ESB_32520_32580",_"ESB_MQM_33770_33865")_ + 1 x_("ADB_ESB_32605_32680",_"ESB_MQM_33770_33865")_ + 1 x_("GNY_ESB_32730_32810",_"ESB_MQM_33770_33865")_ + 1 x_("ECN_ESB_32735_32805",_"ESB_MQM_33770_33865")_ + 1 x_("ADA_ESB_32740_32805",_"ESB_MQM_33770_33865")_ + 1 x_("SZF_ESB_32755_32815",_"ESB_MQM_33770_33865")_ + 1 x_("ECN_ESB_33360_33430",_"ESB_MQM_33770_33865")_ + 1 x_("YEI_ESB_33360_33420",_"ESB_MQM_33770_33865")_ + 1 x_("MLX_ESB_33360_33435",_"ESB_MQM_33770_33865")_ + 1 x_("HTY_ESB_33360_33435",_"ESB_MQM_33770_33865")_ + 1 x_("SAW_ESB_33420_33480",_"ESB_MQM_33770_33865")_ + 1 x_("TZX_ESB_33595_33675",_"ESB_MQM_33770_33865")_ + 1 x_("SAW_ESB_33600_33660",_"ESB_MQM_33770_33865")_ + 1 x_("AJI_ESB_33620_33725",_"ESB_MQM_33770_33865")_ + 1 x_("BAL_ESB_33630_33725",_"ESB_MQM_33770_33865")_ - 1 x_("ESB_MQM_33770_33865",_"MQM_ESB_33900_33995")_ = 0
mp_c2_ESB_ERC_33810_33890_: 1 x_("MQM_ESB_32460_32555",_"ESB_ERC_33810_33890")_ + 1 x_("ERC_ESB_32485_32565",_"ESB_ERC_33810_33890")_ + 1 x_("SAW_ESB_32520_32580",_"ESB_ERC_33810_33890")_ + 1 x_("ADB_ESB_32605_32680",_"ESB_ERC_33810_33890")_ + 1 x_("GNY_ESB_32730_32810",_"ESB_ERC_33810_33890")_ + 1 x_("ECN_ESB_32735_32805",_"ESB_ERC_33810_33890")_ + 1 x_("ADA_ESB_32740_32805",_"ESB_ERC_33810_33890")_ + 1 x_("SZF_ESB_32755_32815",_"ESB_ERC_33810_33890")_ + 1 x_("ECN_ESB_33360_33430",_"ESB_ERC_33810_33890")_ + 1 x_("YEI_ESB_33360_33420",_"ESB_ERC_33810_33890")_ + 1 x_("MLX_ESB_33360_33435",_"ESB_ERC_33810_33890")_ + 1 x_("HTY_ESB_33360_33435",_"ESB_ERC_33810_33890")_ + 1 x_("SAW_ESB_33420_33480",_"ESB_ERC_33810_33890")_ + 1 x_("TZX_ESB_33595_33675",_"ESB_ERC_33810_33890")_ + 1 x_("SAW_ESB_33600_33660",_"ESB_ERC_33810_33890")_ + 1 x_("AJI_ESB_33620_33725",_"ESB_ERC_33810_33890")_ + 1 x_("BAL_ESB_33630_33725",_"ESB_ERC_33810_33890")_ - 1 x_("ESB_ERC_33810_33890",_"ERC_ESB_33925_34005")_ = 0
mp_c2_SAW_VAS_33810_33890_: 1 x_("TZX_SAW_32280_32385",_"SAW_VAS_33810_33890")_ + 1 x_("ESB_SAW_32400_32460",_"SAW_VAS_33810_33890")_ + 1 x_("VAS_SAW_32485_32565",_"SAW_VAS_33810_33890")_ + 1 x_("AYT_SAW_32490_32555",_"SAW_VAS_33810_33890")_ + 1 x_("ADB_SAW_32705_32765",_"SAW_VAS_33810_33890")_ + 1 x_("KYA_SAW_32775_32845",_"SAW_VAS_33810_33890")_ + 1 x_("ASR_SAW_32775_32865",_"SAW_VAS_33810_33890")_ + 1 x_("ADB_SAW_33455_33515",_"SAW_VAS_33810_33890")_ + 1 x_("ESB_SAW_33480_33540",_"SAW_VAS_33810_33890")_ - 1 x_("SAW_VAS_33810_33890",_"VAS_SAW_33925_34005")_ = 0
mp_c2_SAW_AYT_33825_33890_: 1 x_("TZX_SAW_32280_32385",_"SAW_AYT_33825_33890")_ + 1 x_("ESB_SAW_32400_32460",_"SAW_AYT_33825_33890")_ + 1 x_("VAS_SAW_32485_32565",_"SAW_AYT_33825_33890")_ + 1 x_("AYT_SAW_32490_32555",_"SAW_AYT_33825_33890")_ + 1 x_("ADB_SAW_32705_32765",_"SAW_AYT_33825_33890")_ + 1 x_("KYA_SAW_32775_32845",_"SAW_AYT_33825_33890")_ + 1 x_("ASR_SAW_32775_32865",_"SAW_AYT_33825_33890")_ + 1 x_("ADB_SAW_33455_33515",_"SAW_AYT_33825_33890")_ + 1 x_("ESB_SAW_33480_33540",_"SAW_AYT_33825_33890")_ + 1 x_("ESB_SAW_33720_33780",_"SAW_AYT_33825_33890")_ - 1 x_("SAW_AYT_33825_33890",_"AYT_ESB_35200_35265")_ - 1 x_("SAW_AYT_33825_33890",_"AYT_SAW_33930_33995")_ = 0
mp_c2_ESB_SAW_33840_33900_: 1 x_("MQM_ESB_32460_32555",_"ESB_SAW_33840_33900")_ + 1 x_("ERC_ESB_32485_32565",_"ESB_SAW_33840_33900")_ + 1 x_("SAW_ESB_32520_32580",_"ESB_SAW_33840_33900")_ + 1 x_("ADB_ESB_32605_32680",_"ESB_SAW_33840_33900")_ + 1 x_("GNY_ESB_32730_32810",_"ESB_SAW_33840_33900")_ + 1 x_("ECN_ESB_32735_32805",_"ESB_SAW_33840_33900")_ + 1 x_("ADA_ESB_32740_32805",_"ESB_SAW_33840_33900")_ + 1 x_("SZF_ESB_32755_32815",_"ESB_SAW_33840_33900")_ + 1 x_("ECN_ESB_33360_33430",_"ESB_SAW_33840_33900")_ + 1 x_("YEI_ESB_33360_33420",_"ESB_SAW_33840_33900")_ + 1 x_("MLX_ESB_33360_33435",_"ESB_SAW_33840_33900")_ + 1 x_("HTY_ESB_33360_33435",_"ESB_SAW_33840_33900")_ + 1 x_("SAW_ESB_33420_33480",_"ESB_SAW_33840_33900")_ + 1 x_("TZX_ESB_33595_33675",_"ESB_SAW_33840_33900")_ + 1 x_("SAW_ESB_33600_33660",_"ESB_SAW_33840_33900")_ + 1 x_("AJI_ESB_33620_33725",_"ESB_SAW_33840_33900")_ + 1 x_("BAL_ESB_33630_33725",_"ESB_SAW_33840_33900")_ + 1 x_("VAN_ESB_33695_33800",_"ESB_SAW_33840_33900")_ - 1 x_("ESB_SAW_33840_33900",_"SAW_ADB_34050_34110")_ - 1 x_("ESB_SAW_33840_33900",_"SAW_ESB_33960_34020")_ - 1 x_("ESB_SAW_33840_33900",_"SAW_NAJ_35030_35170")_ - 1 x_("ESB_SAW_33840_33900",_"SAW_ESB_35040_35100")_ - 1 x_("ESB_SAW_33840_33900",_"SAW_ADB_34800_34860")_ - 1 x_("ESB_SAW_33840_33900",_"SAW_TZX_35025_35125")_ - 1 x_("ESB_SAW_33840_33900",_"SAW_AYT_35265_35330")_ - 1 x_("ESB_SAW_33840_33900",_"SAW_ESB_34860_34920")_ - 1 x_("ESB_SAW_33840_33900",_"SAW_ASR_34095_34180")_ = 0
mp_c2_MQM_ESB_33900_33995_: 1 x_("ESB_MQM_33770_33865",_"MQM_ESB_33900_33995")_ - 1 x_("MQM_ESB_33900_33995",_"ESB_ECN_34305_34375")_ - 1 x_("MQM_ESB_33900_33995",_"ESB_BAL_34945_35035")_ - 1 x_("MQM_ESB_33900_33995",_"ESB_SAW_34920_34980")_ - 1 x_("MQM_ESB_33900_33995",_"ESB_SZF_34100_34160")_ - 1 x_("MQM_ESB_33900_33995",_"ESB_SAW_35280_35340")_ - 1 x_("MQM_ESB_33900_33995",_"ESB_HTY_34310_34390")_ - 1 x_("MQM_ESB_33900_33995",_"ESB_MLX_34300_34375")_ - 1 x_("MQM_ESB_33900_33995",_"ESB_ADB_35370_35450")_ - 1 x_("MQM_ESB_33900_33995",_"ESB_AYT_35100_35165")_ - 1 x_("MQM_ESB_33900_33995",_"ESB_ADA_34080_34140")_ - 1 x_("MQM_ESB_33900_33995",_"ESB_TZX_34920_35000")_ - 1 x_("MQM_ESB_33900_33995",_"ESB_MQM_35210_35305")_ - 1 x_("MQM_ESB_33900_33995",_"ESB_AJI_34930_35025")_ - 1 x_("MQM_ESB_33900_33995",_"ESB_VAN_35005_35100")_ - 1 x_("MQM_ESB_33900_33995",_"ESB_ECN_35220_35290")_ - 1 x_("MQM_ESB_33900_33995",_"ESB_YEI_34315_34375")_ - 1 x_("MQM_ESB_33900_33995",_"ESB_ERC_35250_35330")_ - 1 x_("MQM_ESB_33900_33995",_"ESB_GNY_34060_34135")_ - 1 x_("MQM_ESB_33900_33995",_"ESB_SAW_35160_35220")_ = 0
mp_c2_ERC_ESB_33925_34005_: 1 x_("ESB_ERC_33810_33890",_"ERC_ESB_33925_34005")_ - 1 x_("ERC_ESB_33925_34005",_"ESB_ECN_34305_34375")_ - 1 x_("ERC_ESB_33925_34005",_"ESB_BAL_34945_35035")_ - 1 x_("ERC_ESB_33925_34005",_"ESB_SAW_34920_34980")_ - 1 x_("ERC_ESB_33925_34005",_"ESB_SZF_34100_34160")_ - 1 x_("ERC_ESB_33925_34005",_"ESB_SAW_35280_35340")_ - 1 x_("ERC_ESB_33925_34005",_"ESB_HTY_34310_34390")_ - 1 x_("ERC_ESB_33925_34005",_"ESB_MLX_34300_34375")_ - 1 x_("ERC_ESB_33925_34005",_"ESB_ADB_35370_35450")_ - 1 x_("ERC_ESB_33925_34005",_"ESB_AYT_35100_35165")_ - 1 x_("ERC_ESB_33925_34005",_"ESB_ADA_34080_34140")_ - 1 x_("ERC_ESB_33925_34005",_"ESB_TZX_34920_35000")_ - 1 x_("ERC_ESB_33925_34005",_"ESB_MQM_35210_35305")_ - 1 x_("ERC_ESB_33925_34005",_"ESB_AJI_34930_35025")_ - 1 x_("ERC_ESB_33925_34005",_"ESB_VAN_35005_35100")_ - 1 x_("ERC_ESB_33925_34005",_"ESB_ECN_35220_35290")_ - 1 x_("ERC_ESB_33925_34005",_"ESB_YEI_34315_34375")_ - 1 x_("ERC_ESB_33925_34005",_"ESB_ERC_35250_35330")_ - 1 x_("ERC_ESB_33925_34005",_"ESB_GNY_34060_34135")_ - 1 x_("ERC_ESB_33925_34005",_"ESB_SAW_35160_35220")_ = 0
mp_c2_VAS_SAW_33925_34005_: 1 x_("SAW_VAS_33810_33890",_"VAS_SAW_33925_34005")_ - 1 x_("VAS_SAW_33925_34005",_"SAW_ADB_34050_34110")_ - 1 x_("VAS_SAW_33925_34005",_"SAW_NAJ_35030_35170")_ - 1 x_("VAS_SAW_33925_34005",_"SAW_ESB_35040_35100")_ - 1 x_("VAS_SAW_33925_34005",_"SAW_ADB_34800_34860")_ - 1 x_("VAS_SAW_33925_34005",_"SAW_TZX_35025_35125")_ - 1 x_("VAS_SAW_33925_34005",_"SAW_ESB_35400_35460")_ - 1 x_("VAS_SAW_33925_34005",_"SAW_AYT_35265_35330")_ - 1 x_("VAS_SAW_33925_34005",_"SAW_ESB_34860_34920")_ - 1 x_("VAS_SAW_33925_34005",_"SAW_ASR_34095_34180")_ = 0
mp_c2_ESB_ADB_33930_34010_: 1 x_("MQM_ESB_32460_32555",_"ESB_ADB_33930_34010")_ + 1 x_("ERC_ESB_32485_32565",_"ESB_ADB_33930_34010")_ + 1 x_("SAW_ESB_32520_32580",_"ESB_ADB_33930_34010")_ + 1 x_("ADB_ESB_32605_32680",_"ESB_ADB_33930_34010")_ + 1 x_("GNY_ESB_32730_32810",_"ESB_ADB_33930_34010")_ + 1 x_("ECN_ESB_32735_32805",_"ESB_ADB_33930_34010")_ + 1 x_("ADA_ESB_32740_32805",_"ESB_ADB_33930_34010")_ + 1 x_("SZF_ESB_32755_32815",_"ESB_ADB_33930_34010")_ + 1 x_("ECN_ESB_33360_33430",_"ESB_ADB_33930_34010")_ + 1 x_("YEI_ESB_33360_33420",_"ESB_ADB_33930_34010")_ + 1 x_("MLX_ESB_33360_33435",_"ESB_ADB_33930_34010")_ + 1 x_("HTY_ESB_33360_33435",_"ESB_ADB_33930_34010")_ + 1 x_("SAW_ESB_33420_33480",_"ESB_ADB_33930_34010")_ + 1 x_("TZX_ESB_33595_33675",_"ESB_ADB_33930_34010")_ + 1 x_("SAW_ESB_33600_33660",_"ESB_ADB_33930_34010")_ + 1 x_("AJI_ESB_33620_33725",_"ESB_ADB_33930_34010")_ + 1 x_("BAL_ESB_33630_33725",_"ESB_ADB_33930_34010")_ + 1 x_("VAN_ESB_33695_33800",_"ESB_ADB_33930_34010")_ - 1 x_("ESB_ADB_33930_34010",_"ADB_SAW_34895_34955")_ - 1 x_("ESB_ADB_33930_34010",_"ADB_SAW_34145_34205")_ - 1 x_("ESB_ADB_33930_34010",_"ADB_ESB_34045_34120")_ = 0
mp_c2_AYT_SAW_33930_33995_: 1 x_("SAW_AYT_33825_33890",_"AYT_SAW_33930_33995")_ - 1 x_("AYT_SAW_33930_33995",_"SAW_ADB_34050_34110")_ - 1 x_("AYT_SAW_33930_33995",_"SAW_NAJ_35030_35170")_ - 1 x_("AYT_SAW_33930_33995",_"SAW_ESB_35040_35100")_ - 1 x_("AYT_SAW_33930_33995",_"SAW_ADB_34800_34860")_ - 1 x_("AYT_SAW_33930_33995",_"SAW_TZX_35025_35125")_ - 1 x_("AYT_SAW_33930_33995",_"SAW_ESB_35400_35460")_ - 1 x_("AYT_SAW_33930_33995",_"SAW_AYT_35265_35330")_ - 1 x_("AYT_SAW_33930_33995",_"SAW_ESB_34860_34920")_ - 1 x_("AYT_SAW_33930_33995",_"SAW_ASR_34095_34180")_ = 0
mp_c2_SAW_ESB_33960_34020_: 1 x_("VAS_SAW_32485_32565",_"SAW_ESB_33960_34020")_ + 1 x_("AYT_SAW_32490_32555",_"SAW_ESB_33960_34020")_ + 1 x_("ADB_SAW_32705_32765",_"SAW_ESB_33960_34020")_ + 1 x_("KYA_SAW_32775_32845",_"SAW_ESB_33960_34020")_ + 1 x_("ASR_SAW_32775_32865",_"SAW_ESB_33960_34020")_ + 1 x_("ADB_SAW_33455_33515",_"SAW_ESB_33960_34020")_ + 1 x_("ESB_SAW_33480_33540",_"SAW_ESB_33960_34020")_ + 1 x_("TZX_SAW_33720_33825",_"SAW_ESB_33960_34020")_ + 1 x_("ESB_SAW_33720_33780",_"SAW_ESB_33960_34020")_ + 1 x_("ESB_SAW_33840_33900",_"SAW_ESB_33960_34020")_ - 1 x_("SAW_ESB_33960_34020",_"ESB_ECN_34305_34375")_ - 1 x_("SAW_ESB_33960_34020",_"ESB_BAL_34945_35035")_ - 1 x_("SAW_ESB_33960_34020",_"ESB_SAW_34920_34980")_ - 1 x_("SAW_ESB_33960_34020",_"ESB_SZF_34100_34160")_ - 1 x_("SAW_ESB_33960_34020",_"ESB_SAW_35280_35340")_ - 1 x_("SAW_ESB_33960_34020",_"ESB_HTY_34310_34390")_ - 1 x_("SAW_ESB_33960_34020",_"ESB_MLX_34300_34375")_ - 1 x_("SAW_ESB_33960_34020",_"ESB_ADB_35370_35450")_ - 1 x_("SAW_ESB_33960_34020",_"ESB_AYT_35100_35165")_ - 1 x_("SAW_ESB_33960_34020",_"ESB_ADA_34080_34140")_ - 1 x_("SAW_ESB_33960_34020",_"ESB_TZX_34920_35000")_ - 1 x_("SAW_ESB_33960_34020",_"ESB_MQM_35210_35305")_ - 1 x_("SAW_ESB_33960_34020",_"ESB_AJI_34930_35025")_ - 1 x_("SAW_ESB_33960_34020",_"ESB_VAN_35005_35100")_ - 1 x_("SAW_ESB_33960_34020",_"ESB_ECN_35220_35290")_ - 1 x_("SAW_ESB_33960_34020",_"ESB_YEI_34315_34375")_ - 1 x_("SAW_ESB_33960_34020",_"ESB_ERC_35250_35330")_ - 1 x_("SAW_ESB_33960_34020",_"ESB_GNY_34060_34135")_ - 1 x_("SAW_ESB_33960_34020",_"ESB_SAW_35160_35220")_ = 0
mp_c2_ADB_ESB_34045_34120_: 1 x_("SAW_ADB_32610_32670",_"ADB_ESB_34045_34120")_ + 1 x_("SAW_ADB_33360_33420",_"ADB_ESB_34045_34120")_ + 1 x_("ESB_ADB_33930_34010",_"ADB_ESB_34045_34120")_ - 1 x_("ADB_ESB_34045_34120",_"ESB_ECN_34305_34375")_ - 1 x_("ADB_ESB_34045_34120",_"ESB_ADA_35520_35580")_ - 1 x_("ADB_ESB_34045_34120",_"ESB_SZF_35540_35600")_ - 1 x_("ADB_ESB_34045_34120",_"ESB_BAL_34945_35035")_ - 1 x_("ADB_ESB_34045_34120",_"ESB_SAW_34920_34980")_ - 1 x_("ADB_ESB_34045_34120",_"ESB_SAW_35280_35340")_ - 1 x_("ADB_ESB_34045_34120",_"ESB_HTY_34310_34390")_ - 1 x_("ADB_ESB_34045_34120",_"ESB_MLX_34300_34375")_ - 1 x_("ADB_ESB_34045_34120",_"ESB_ADB_35370_35450")_ - 1 x_("ADB_ESB_34045_34120",_"ESB_AYT_35100_35165")_ - 1 x_("ADB_ESB_34045_34120",_"ESB_TZX_34920_35000")_ - 1 x_("ADB_ESB_34045_34120",_"ESB_MQM_35210_35305")_ - 1 x_("ADB_ESB_34045_34120",_"ESB_AJI_34930_35025")_ - 1 x_("ADB_ESB_34045_34120",_"ESB_VAN_35005_35100")_ - 1 x_("ADB_ESB_34045_34120",_"ESB_ECN_35220_35290")_ - 1 x_("ADB_ESB_34045_34120",_"ESB_YEI_34315_34375")_ - 1 x_("ADB_ESB_34045_34120",_"ESB_ERC_35250_35330")_ - 1 x_("ADB_ESB_34045_34120",_"ESB_GNY_35500_35575")_ - 1 x_("ADB_ESB_34045_34120",_"ESB_SAW_35160_35220")_ = 0
mp_c2_SAW_ADB_34050_34110_: 1 x_("ADB_SAW_32705_32765",_"SAW_ADB_34050_34110")_ + 1 x_("KYA_SAW_32775_32845",_"SAW_ADB_34050_34110")_ + 1 x_("ASR_SAW_32775_32865",_"SAW_ADB_34050_34110")_ + 1 x_("ADB_SAW_33455_33515",_"SAW_ADB_34050_34110")_ + 1 x_("ESB_SAW_33480_33540",_"SAW_ADB_34050_34110")_ + 1 x_("TZX_SAW_33720_33825",_"SAW_ADB_34050_34110")_ + 1 x_("ESB_SAW_33720_33780",_"SAW_ADB_34050_34110")_ + 1 x_("ESB_SAW_33840_33900",_"SAW_ADB_34050_34110")_ + 1 x_("VAS_SAW_33925_34005",_"SAW_ADB_34050_34110")_ + 1 x_("AYT_SAW_33930_33995",_"SAW_ADB_34050_34110")_ - 1 x_("SAW_ADB_34050_34110",_"ADB_SAW_34895_34955")_ - 1 x_("SAW_ADB_34050_34110",_"ADB_ESB_35485_35560")_ - 1 x_("SAW_ADB_34050_34110",_"ADB_SAW_34145_34205")_ = 0
mp_c2_ESB_GNY_34060_34135_: 1 x_("ADB_ESB_32605_32680",_"ESB_GNY_34060_34135")_ + 1 x_("GNY_ESB_32730_32810",_"ESB_GNY_34060_34135")_ + 1 x_("ECN_ESB_32735_32805",_"ESB_GNY_34060_34135")_ + 1 x_("ADA_ESB_32740_32805",_"ESB_GNY_34060_34135")_ + 1 x_("SZF_ESB_32755_32815",_"ESB_GNY_34060_34135")_ + 1 x_("ECN_ESB_33360_33430",_"ESB_GNY_34060_34135")_ + 1 x_("YEI_ESB_33360_33420",_"ESB_GNY_34060_34135")_ + 1 x_("MLX_ESB_33360_33435",_"ESB_GNY_34060_34135")_ + 1 x_("HTY_ESB_33360_33435",_"ESB_GNY_34060_34135")_ + 1 x_("SAW_ESB_33420_33480",_"ESB_GNY_34060_34135")_ + 1 x_("TZX_ESB_33595_33675",_"ESB_GNY_34060_34135")_ + 1 x_("SAW_ESB_33600_33660",_"ESB_GNY_34060_34135")_ + 1 x_("AJI_ESB_33620_33725",_"ESB_GNY_34060_34135")_ + 1 x_("BAL_ESB_33630_33725",_"ESB_GNY_34060_34135")_ + 1 x_("VAN_ESB_33695_33800",_"ESB_GNY_34060_34135")_ + 1 x_("MQM_ESB_33900_33995",_"ESB_GNY_34060_34135")_ + 1 x_("ERC_ESB_33925_34005",_"ESB_GNY_34060_34135")_ + 1 x_("SAW_ESB_33960_34020",_"ESB_GNY_34060_34135")_ - 1 x_("ESB_GNY_34060_34135",_"GNY_ESB_34170_34250")_ = 0
mp_c2_ESB_ADA_34080_34140_: 1 x_("ADB_ESB_32605_32680",_"ESB_ADA_34080_34140")_ + 1 x_("GNY_ESB_32730_32810",_"ESB_ADA_34080_34140")_ + 1 x_("ECN_ESB_32735_32805",_"ESB_ADA_34080_34140")_ + 1 x_("ADA_ESB_32740_32805",_"ESB_ADA_34080_34140")_ + 1 x_("SZF_ESB_32755_32815",_"ESB_ADA_34080_34140")_ + 1 x_("ECN_ESB_33360_33430",_"ESB_ADA_34080_34140")_ + 1 x_("YEI_ESB_33360_33420",_"ESB_ADA_34080_34140")_ + 1 x_("MLX_ESB_33360_33435",_"ESB_ADA_34080_34140")_ + 1 x_("HTY_ESB_33360_33435",_"ESB_ADA_34080_34140")_ + 1 x_("SAW_ESB_33420_33480",_"ESB_ADA_34080_34140")_ + 1 x_("TZX_ESB_33595_33675",_"ESB_ADA_34080_34140")_ + 1 x_("SAW_ESB_33600_33660",_"ESB_ADA_34080_34140")_ + 1 x_("AJI_ESB_33620_33725",_"ESB_ADA_34080_34140")_ + 1 x_("BAL_ESB_33630_33725",_"ESB_ADA_34080_34140")_ + 1 x_("VAN_ESB_33695_33800",_"ESB_ADA_34080_34140")_ + 1 x_("MQM_ESB_33900_33995",_"ESB_ADA_34080_34140")_ + 1 x_("ERC_ESB_33925_34005",_"ESB_ADA_34080_34140")_ + 1 x_("SAW_ESB_33960_34020",_"ESB_ADA_34080_34140")_ - 1 x_("ESB_ADA_34080_34140",_"ADA_ESB_34180_34245")_ = 0
mp_c2_SAW_ASR_34095_34180_: 1 x_("ADB_SAW_32705_32765",_"SAW_ASR_34095_34180")_ + 1 x_("KYA_SAW_32775_32845",_"SAW_ASR_34095_34180")_ + 1 x_("ASR_SAW_32775_32865",_"SAW_ASR_34095_34180")_ + 1 x_("ADB_SAW_33455_33515",_"SAW_ASR_34095_34180")_ + 1 x_("ESB_SAW_33480_33540",_"SAW_ASR_34095_34180")_ + 1 x_("TZX_SAW_33720_33825",_"SAW_ASR_34095_34180")_ + 1 x_("ESB_SAW_33720_33780",_"SAW_ASR_34095_34180")_ + 1 x_("ESB_SAW_33840_33900",_"SAW_ASR_34095_34180")_ + 1 x_("VAS_SAW_33925_34005",_"SAW_ASR_34095_34180")_ + 1 x_("AYT_SAW_33930_33995",_"SAW_ASR_34095_34180")_ - 1 x_("SAW_ASR_34095_34180",_"ASR_SAW_34215_34305")_ = 0
mp_c2_ESB_SZF_34100_34160_: 1 x_("ADB_ESB_32605_32680",_"ESB_SZF_34100_34160")_ + 1 x_("GNY_ESB_32730_32810",_"ESB_SZF_34100_34160")_ + 1 x_("ECN_ESB_32735_32805",_"ESB_SZF_34100_34160")_ + 1 x_("ADA_ESB_32740_32805",_"ESB_SZF_34100_34160")_ + 1 x_("SZF_ESB_32755_32815",_"ESB_SZF_34100_34160")_ + 1 x_("ECN_ESB_33360_33430",_"ESB_SZF_34100_34160")_ + 1 x_("YEI_ESB_33360_33420",_"ESB_SZF_34100_34160")_ + 1 x_("MLX_ESB_33360_33435",_"ESB_SZF_34100_34160")_ + 1 x_("HTY_ESB_33360_33435",_"ESB_SZF_34100_34160")_ + 1 x_("SAW_ESB_33420_33480",_"ESB_SZF_34100_34160")_ + 1 x_("TZX_ESB_33595_33675",_"ESB_SZF_34100_34160")_ + 1 x_("SAW_ESB_33600_33660",_"ESB_SZF_34100_34160")_ + 1 x_("AJI_ESB_33620_33725",_"ESB_SZF_34100_34160")_ + 1 x_("BAL_ESB_33630_33725",_"ESB_SZF_34100_34160")_ + 1 x_("VAN_ESB_33695_33800",_"ESB_SZF_34100_34160")_ + 1 x_("MQM_ESB_33900_33995",_"ESB_SZF_34100_34160")_ + 1 x_("ERC_ESB_33925_34005",_"ESB_SZF_34100_34160")_ + 1 x_("SAW_ESB_33960_34020",_"ESB_SZF_34100_34160")_ - 1 x_("ESB_SZF_34100_34160",_"SZF_ESB_34195_34255")_ = 0
mp_c2_ADB_SAW_34145_34205_: 1 x_("SAW_ADB_33360_33420",_"ADB_SAW_34145_34205")_ + 1 x_("ESB_ADB_33930_34010",_"ADB_SAW_34145_34205")_ + 1 x_("SAW_ADB_34050_34110",_"ADB_SAW_34145_34205")_ - 1 x_("ADB_SAW_34145_34205",_"SAW_NAJ_35030_35170")_ - 1 x_("ADB_SAW_34145_34205",_"SAW_ESB_35040_35100")_ - 1 x_("ADB_SAW_34145_34205",_"SAW_ADB_34800_34860")_ - 1 x_("ADB_SAW_34145_34205",_"SAW_ADB_35490_35550")_ - 1 x_("ADB_SAW_34145_34205",_"SAW_TZX_35025_35125")_ - 1 x_("ADB_SAW_34145_34205",_"SAW_ESB_35400_35460")_ - 1 x_("ADB_SAW_34145_34205",_"SAW_AYT_35265_35330")_ - 1 x_("ADB_SAW_34145_34205",_"SAW_KYA_35550_35620")_ - 1 x_("ADB_SAW_34145_34205",_"SAW_ASR_35535_35620")_ - 1 x_("ADB_SAW_34145_34205",_"SAW_ESB_34860_34920")_ = 0
mp_c2_GNY_ESB_34170_34250_: 1 x_("ESB_GNY_34060_34135",_"GNY_ESB_34170_34250")_ - 1 x_("GNY_ESB_34170_34250",_"ESB_ECN_34305_34375")_ - 1 x_("GNY_ESB_34170_34250",_"ESB_ADA_35520_35580")_ - 1 x_("GNY_ESB_34170_34250",_"ESB_SZF_35540_35600")_ - 1 x_("GNY_ESB_34170_34250",_"ESB_BAL_34945_35035")_ - 1 x_("GNY_ESB_34170_34250",_"ESB_SAW_34920_34980")_ - 1 x_("GNY_ESB_34170_34250",_"ESB_SAW_35280_35340")_ - 1 x_("GNY_ESB_34170_34250",_"ESB_HTY_34310_34390")_ - 1 x_("GNY_ESB_34170_34250",_"ESB_MLX_34300_34375")_ - 1 x_("GNY_ESB_34170_34250",_"ESB_ADB_35370_35450")_ - 1 x_("GNY_ESB_34170_34250",_"ESB_AYT_35100_35165")_ - 1 x_("GNY_ESB_34170_34250",_"ESB_TZX_34920_35000")_ - 1 x_("GNY_ESB_34170_34250",_"ESB_MQM_35210_35305")_ - 1 x_("GNY_ESB_34170_34250",_"ESB_AJI_34930_35025")_ - 1 x_("GNY_ESB_34170_34250",_"ESB_VAN_35005_35100")_ - 1 x_("GNY_ESB_34170_34250",_"ESB_ECN_35220_35290")_ - 1 x_("GNY_ESB_34170_34250",_"ESB_YEI_34315_34375")_ - 1 x_("GNY_ESB_34170_34250",_"ESB_ERC_35250_35330")_ - 1 x_("GNY_ESB_34170_34250",_"ESB_GNY_35500_35575")_ - 1 x_("GNY_ESB_34170_34250",_"ESB_SAW_35160_35220")_ = 0
mp_c2_ADA_ESB_34180_34245_: 1 x_("ESB_ADA_34080_34140",_"ADA_ESB_34180_34245")_ - 1 x_("ADA_ESB_34180_34245",_"ESB_ECN_34305_34375")_ - 1 x_("ADA_ESB_34180_34245",_"ESB_ADA_35520_35580")_ - 1 x_("ADA_ESB_34180_34245",_"ESB_SZF_35540_35600")_ - 1 x_("ADA_ESB_34180_34245",_"ESB_BAL_34945_35035")_ - 1 x_("ADA_ESB_34180_34245",_"ESB_SAW_34920_34980")_ - 1 x_("ADA_ESB_34180_34245",_"ESB_SAW_35280_35340")_ - 1 x_("ADA_ESB_34180_34245",_"ESB_HTY_34310_34390")_ - 1 x_("ADA_ESB_34180_34245",_"ESB_MLX_34300_34375")_ - 1 x_("ADA_ESB_34180_34245",_"ESB_ADB_35370_35450")_ - 1 x_("ADA_ESB_34180_34245",_"ESB_AYT_35100_35165")_ - 1 x_("ADA_ESB_34180_34245",_"ESB_TZX_34920_35000")_ - 1 x_("ADA_ESB_34180_34245",_"ESB_MQM_35210_35305")_ - 1 x_("ADA_ESB_34180_34245",_"ESB_AJI_34930_35025")_ - 1 x_("ADA_ESB_34180_34245",_"ESB_VAN_35005_35100")_ - 1 x_("ADA_ESB_34180_34245",_"ESB_ECN_35220_35290")_ - 1 x_("ADA_ESB_34180_34245",_"ESB_YEI_34315_34375")_ - 1 x_("ADA_ESB_34180_34245",_"ESB_ERC_35250_35330")_ - 1 x_("ADA_ESB_34180_34245",_"ESB_GNY_35500_35575")_ - 1 x_("ADA_ESB_34180_34245",_"ESB_SAW_35160_35220")_ = 0
mp_c2_SZF_ESB_34195_34255_: 1 x_("ESB_SZF_34100_34160",_"SZF_ESB_34195_34255")_ - 1 x_("SZF_ESB_34195_34255",_"ESB_ECN_34305_34375")_ - 1 x_("SZF_ESB_34195_34255",_"ESB_ADA_35520_35580")_ - 1 x_("SZF_ESB_34195_34255",_"ESB_SZF_35540_35600")_ - 1 x_("SZF_ESB_34195_34255",_"ESB_BAL_34945_35035")_ - 1 x_("SZF_ESB_34195_34255",_"ESB_SAW_34920_34980")_ - 1 x_("SZF_ESB_34195_34255",_"ESB_SAW_35280_35340")_ - 1 x_("SZF_ESB_34195_34255",_"ESB_HTY_34310_34390")_ - 1 x_("SZF_ESB_34195_34255",_"ESB_MLX_34300_34375")_ - 1 x_("SZF_ESB_34195_34255",_"ESB_ADB_35370_35450")_ - 1 x_("SZF_ESB_34195_34255",_"ESB_AYT_35100_35165")_ - 1 x_("SZF_ESB_34195_34255",_"ESB_TZX_34920_35000")_ - 1 x_("SZF_ESB_34195_34255",_"ESB_MQM_35210_35305")_ - 1 x_("SZF_ESB_34195_34255",_"ESB_AJI_34930_35025")_ - 1 x_("SZF_ESB_34195_34255",_"ESB_VAN_35005_35100")_ - 1 x_("SZF_ESB_34195_34255",_"ESB_ECN_35220_35290")_ - 1 x_("SZF_ESB_34195_34255",_"ESB_YEI_34315_34375")_ - 1 x_("SZF_ESB_34195_34255",_"ESB_ERC_35250_35330")_ - 1 x_("SZF_ESB_34195_34255",_"ESB_GNY_35500_35575")_ - 1 x_("SZF_ESB_34195_34255",_"ESB_SAW_35160_35220")_ = 0
mp_c2_ASR_SAW_34215_34305_: 1 x_("SAW_ASR_34095_34180",_"ASR_SAW_34215_34305")_ - 1 x_("ASR_SAW_34215_34305",_"SAW_NAJ_35030_35170")_ - 1 x_("ASR_SAW_34215_34305",_"SAW_ESB_35040_35100")_ - 1 x_("ASR_SAW_34215_34305",_"SAW_ADB_34800_34860")_ - 1 x_("ASR_SAW_34215_34305",_"SAW_ADB_35490_35550")_ - 1 x_("ASR_SAW_34215_34305",_"SAW_TZX_35025_35125")_ - 1 x_("ASR_SAW_34215_34305",_"SAW_ESB_35400_35460")_ - 1 x_("ASR_SAW_34215_34305",_"SAW_AYT_35265_35330")_ - 1 x_("ASR_SAW_34215_34305",_"SAW_KYA_35550_35620")_ - 1 x_("ASR_SAW_34215_34305",_"SAW_ASR_35535_35620")_ - 1 x_("ASR_SAW_34215_34305",_"SAW_ESB_34860_34920")_ = 0
mp_c2_ESB_MLX_34300_34375_: 1 x_("ECN_ESB_33360_33430",_"ESB_MLX_34300_34375")_ + 1 x_("YEI_ESB_33360_33420",_"ESB_MLX_34300_34375")_ + 1 x_("MLX_ESB_33360_33435",_"ESB_MLX_34300_34375")_ + 1 x_("HTY_ESB_33360_33435",_"ESB_MLX_34300_34375")_ + 1 x_("SAW_ESB_33420_33480",_"ESB_MLX_34300_34375")_ + 1 x_("TZX_ESB_33595_33675",_"ESB_MLX_34300_34375")_ + 1 x_("SAW_ESB_33600_33660",_"ESB_MLX_34300_34375")_ + 1 x_("AJI_ESB_33620_33725",_"ESB_MLX_34300_34375")_ + 1 x_("BAL_ESB_33630_33725",_"ESB_MLX_34300_34375")_ + 1 x_("VAN_ESB_33695_33800",_"ESB_MLX_34300_34375")_ + 1 x_("MQM_ESB_33900_33995",_"ESB_MLX_34300_34375")_ + 1 x_("ERC_ESB_33925_34005",_"ESB_MLX_34300_34375")_ + 1 x_("SAW_ESB_33960_34020",_"ESB_MLX_34300_34375")_ + 1 x_("ADB_ESB_34045_34120",_"ESB_MLX_34300_34375")_ + 1 x_("GNY_ESB_34170_34250",_"ESB_MLX_34300_34375")_ + 1 x_("ADA_ESB_34180_34245",_"ESB_MLX_34300_34375")_ + 1 x_("SZF_ESB_34195_34255",_"ESB_MLX_34300_34375")_ - 1 x_("ESB_MLX_34300_34375",_"MLX_ESB_34800_34875")_ = 0
mp_c2_ESB_ECN_34305_34375_: 1 x_("ECN_ESB_33360_33430",_"ESB_ECN_34305_34375")_ + 1 x_("YEI_ESB_33360_33420",_"ESB_ECN_34305_34375")_ + 1 x_("MLX_ESB_33360_33435",_"ESB_ECN_34305_34375")_ + 1 x_("HTY_ESB_33360_33435",_"ESB_ECN_34305_34375")_ + 1 x_("SAW_ESB_33420_33480",_"ESB_ECN_34305_34375")_ + 1 x_("TZX_ESB_33595_33675",_"ESB_ECN_34305_34375")_ + 1 x_("SAW_ESB_33600_33660",_"ESB_ECN_34305_34375")_ + 1 x_("AJI_ESB_33620_33725",_"ESB_ECN_34305_34375")_ + 1 x_("BAL_ESB_33630_33725",_"ESB_ECN_34305_34375")_ + 1 x_("VAN_ESB_33695_33800",_"ESB_ECN_34305_34375")_ + 1 x_("MQM_ESB_33900_33995",_"ESB_ECN_34305_34375")_ + 1 x_("ERC_ESB_33925_34005",_"ESB_ECN_34305_34375")_ + 1 x_("SAW_ESB_33960_34020",_"ESB_ECN_34305_34375")_ + 1 x_("ADB_ESB_34045_34120",_"ESB_ECN_34305_34375")_ + 1 x_("GNY_ESB_34170_34250",_"ESB_ECN_34305_34375")_ + 1 x_("ADA_ESB_34180_34245",_"ESB_ECN_34305_34375")_ + 1 x_("SZF_ESB_34195_34255",_"ESB_ECN_34305_34375")_ - 1 x_("ESB_ECN_34305_34375",_"ECN_ESB_35615_35685")_ - 1 x_("ESB_ECN_34305_34375",_"ECN_HTY_35400_35465")_ - 1 x_("ESB_ECN_34305_34375",_"ECN_ESB_34800_34870")_ = 0
mp_c2_ESB_HTY_34310_34390_: 1 x_("ECN_ESB_33360_33430",_"ESB_HTY_34310_34390")_ + 1 x_("YEI_ESB_33360_33420",_"ESB_HTY_34310_34390")_ + 1 x_("MLX_ESB_33360_33435",_"ESB_HTY_34310_34390")_ + 1 x_("HTY_ESB_33360_33435",_"ESB_HTY_34310_34390")_ + 1 x_("SAW_ESB_33420_33480",_"ESB_HTY_34310_34390")_ + 1 x_("TZX_ESB_33595_33675",_"ESB_HTY_34310_34390")_ + 1 x_("SAW_ESB_33600_33660",_"ESB_HTY_34310_34390")_ + 1 x_("AJI_ESB_33620_33725",_"ESB_HTY_34310_34390")_ + 1 x_("BAL_ESB_33630_33725",_"ESB_HTY_34310_34390")_ + 1 x_("VAN_ESB_33695_33800",_"ESB_HTY_34310_34390")_ + 1 x_("MQM_ESB_33900_33995",_"ESB_HTY_34310_34390")_ + 1 x_("ERC_ESB_33925_34005",_"ESB_HTY_34310_34390")_ + 1 x_("SAW_ESB_33960_34020",_"ESB_HTY_34310_34390")_ + 1 x_("ADB_ESB_34045_34120",_"ESB_HTY_34310_34390")_ + 1 x_("GNY_ESB_34170_34250",_"ESB_HTY_34310_34390")_ + 1 x_("ADA_ESB_34180_34245",_"ESB_HTY_34310_34390")_ + 1 x_("SZF_ESB_34195_34255",_"ESB_HTY_34310_34390")_ - 1 x_("ESB_HTY_34310_34390",_"HTY_ECN_35505_35570")_ - 1 x_("ESB_HTY_34310_34390",_"HTY_ESB_34800_34875")_ = 0
mp_c2_ESB_YEI_34315_34375_: 1 x_("ECN_ESB_33360_33430",_"ESB_YEI_34315_34375")_ + 1 x_("YEI_ESB_33360_33420",_"ESB_YEI_34315_34375")_ + 1 x_("MLX_ESB_33360_33435",_"ESB_YEI_34315_34375")_ + 1 x_("HTY_ESB_33360_33435",_"ESB_YEI_34315_34375")_ + 1 x_("SAW_ESB_33420_33480",_"ESB_YEI_34315_34375")_ + 1 x_("TZX_ESB_33595_33675",_"ESB_YEI_34315_34375")_ + 1 x_("SAW_ESB_33600_33660",_"ESB_YEI_34315_34375")_ + 1 x_("AJI_ESB_33620_33725",_"ESB_YEI_34315_34375")_ + 1 x_("BAL_ESB_33630_33725",_"ESB_YEI_34315_34375")_ + 1 x_("VAN_ESB_33695_33800",_"ESB_YEI_34315_34375")_ + 1 x_("MQM_ESB_33900_33995",_"ESB_YEI_34315_34375")_ + 1 x_("ERC_ESB_33925_34005",_"ESB_YEI_34315_34375")_ + 1 x_("SAW_ESB_33960_34020",_"ESB_YEI_34315_34375")_ + 1 x_("ADB_ESB_34045_34120",_"ESB_YEI_34315_34375")_ + 1 x_("GNY_ESB_34170_34250",_"ESB_YEI_34315_34375")_ + 1 x_("ADA_ESB_34180_34245",_"ESB_YEI_34315_34375")_ + 1 x_("SZF_ESB_34195_34255",_"ESB_YEI_34315_34375")_ - 1 x_("ESB_YEI_34315_34375",_"YEI_ESB_34800_34860")_ = 0
mp_c2_SAW_ADB_34800_34860_: 1 x_("ADB_SAW_33455_33515",_"SAW_ADB_34800_34860")_ + 1 x_("ESB_SAW_33480_33540",_"SAW_ADB_34800_34860")_ + 1 x_("TZX_SAW_33720_33825",_"SAW_ADB_34800_34860")_ + 1 x_("ESB_SAW_33720_33780",_"SAW_ADB_34800_34860")_ + 1 x_("ESB_SAW_33840_33900",_"SAW_ADB_34800_34860")_ + 1 x_("VAS_SAW_33925_34005",_"SAW_ADB_34800_34860")_ + 1 x_("AYT_SAW_33930_33995",_"SAW_ADB_34800_34860")_ + 1 x_("ADB_SAW_34145_34205",_"SAW_ADB_34800_34860")_ + 1 x_("ASR_SAW_34215_34305",_"SAW_ADB_34800_34860")_ - 1 x_("SAW_ADB_34800_34860",_"ADB_SAW_35585_35645")_ - 1 x_("SAW_ADB_34800_34860",_"ADB_SAW_34895_34955")_ - 1 x_("SAW_ADB_34800_34860",_"ADB_ESB_35485_35560")_ = 0
mp_c2_ECN_ESB_34800_34870_: 1 x_("ESB_ECN_34305_34375",_"ECN_ESB_34800_34870")_ - 1 x_("ECN_ESB_34800_34870",_"ESB_ADA_35520_35580")_ - 1 x_("ECN_ESB_34800_34870",_"ESB_SZF_35540_35600")_ - 1 x_("ECN_ESB_34800_34870",_"ESB_HTY_35750_35830")_ - 1 x_("ECN_ESB_34800_34870",_"ESB_ECN_35745_35815")_ - 1 x_("ECN_ESB_34800_34870",_"ESB_BAL_34945_35035")_ - 1 x_("ECN_ESB_34800_34870",_"ESB_SAW_34920_34980")_ - 1 x_("ECN_ESB_34800_34870",_"ESB_SAW_35280_35340")_ - 1 x_("ECN_ESB_34800_34870",_"ESB_ADB_35370_35450")_ - 1 x_("ECN_ESB_34800_34870",_"ESB_AYT_35100_35165")_ - 1 x_("ECN_ESB_34800_34870",_"ESB_TZX_34920_35000")_ - 1 x_("ECN_ESB_34800_34870",_"ESB_MQM_35210_35305")_ - 1 x_("ECN_ESB_34800_34870",_"ESB_AJI_34930_35025")_ - 1 x_("ECN_ESB_34800_34870",_"ESB_VAN_35005_35100")_ - 1 x_("ECN_ESB_34800_34870",_"ESB_YEI_35755_35815")_ - 1 x_("ECN_ESB_34800_34870",_"ESB_ECN_35220_35290")_ - 1 x_("ECN_ESB_34800_34870",_"ESB_ERC_35250_35330")_ - 1 x_("ECN_ESB_34800_34870",_"ESB_MLX_35740_35815")_ - 1 x_("ECN_ESB_34800_34870",_"ESB_GNY_35500_35575")_ - 1 x_("ECN_ESB_34800_34870",_"ESB_SAW_35160_35220")_ = 0
mp_c2_YEI_ESB_34800_34860_: 1 x_("ESB_YEI_34315_34375",_"YEI_ESB_34800_34860")_ - 1 x_("YEI_ESB_34800_34860",_"ESB_ADA_35520_35580")_ - 1 x_("YEI_ESB_34800_34860",_"ESB_SZF_35540_35600")_ - 1 x_("YEI_ESB_34800_34860",_"ESB_HTY_35750_35830")_ - 1 x_("YEI_ESB_34800_34860",_"ESB_ECN_35745_35815")_ - 1 x_("YEI_ESB_34800_34860",_"ESB_BAL_34945_35035")_ - 1 x_("YEI_ESB_34800_34860",_"ESB_SAW_34920_34980")_ - 1 x_("YEI_ESB_34800_34860",_"ESB_SAW_35280_35340")_ - 1 x_("YEI_ESB_34800_34860",_"ESB_ADB_35370_35450")_ - 1 x_("YEI_ESB_34800_34860",_"ESB_AYT_35100_35165")_ - 1 x_("YEI_ESB_34800_34860",_"ESB_TZX_34920_35000")_ - 1 x_("YEI_ESB_34800_34860",_"ESB_MQM_35210_35305")_ - 1 x_("YEI_ESB_34800_34860",_"ESB_AJI_34930_35025")_ - 1 x_("YEI_ESB_34800_34860",_"ESB_VAN_35005_35100")_ - 1 x_("YEI_ESB_34800_34860",_"ESB_YEI_35755_35815")_ - 1 x_("YEI_ESB_34800_34860",_"ESB_ECN_35220_35290")_ - 1 x_("YEI_ESB_34800_34860",_"ESB_ERC_35250_35330")_ - 1 x_("YEI_ESB_34800_34860",_"ESB_MLX_35740_35815")_ - 1 x_("YEI_ESB_34800_34860",_"ESB_GNY_35500_35575")_ - 1 x_("YEI_ESB_34800_34860",_"ESB_SAW_35160_35220")_ = 0
mp_c2_MLX_ESB_34800_34875_: 1 x_("ESB_MLX_34300_34375",_"MLX_ESB_34800_34875")_ - 1 x_("MLX_ESB_34800_34875",_"ESB_ADA_35520_35580")_ - 1 x_("MLX_ESB_34800_34875",_"ESB_SZF_35540_35600")_ - 1 x_("MLX_ESB_34800_34875",_"ESB_HTY_35750_35830")_ - 1 x_("MLX_ESB_34800_34875",_"ESB_ECN_35745_35815")_ - 1 x_("MLX_ESB_34800_34875",_"ESB_BAL_34945_35035")_ - 1 x_("MLX_ESB_34800_34875",_"ESB_SAW_34920_34980")_ - 1 x_("MLX_ESB_34800_34875",_"ESB_SAW_35280_35340")_ - 1 x_("MLX_ESB_34800_34875",_"ESB_ADB_35370_35450")_ - 1 x_("MLX_ESB_34800_34875",_"ESB_AYT_35100_35165")_ - 1 x_("MLX_ESB_34800_34875",_"ESB_TZX_34920_35000")_ - 1 x_("MLX_ESB_34800_34875",_"ESB_MQM_35210_35305")_ - 1 x_("MLX_ESB_34800_34875",_"ESB_AJI_34930_35025")_ - 1 x_("MLX_ESB_34800_34875",_"ESB_VAN_35005_35100")_ - 1 x_("MLX_ESB_34800_34875",_"ESB_YEI_35755_35815")_ - 1 x_("MLX_ESB_34800_34875",_"ESB_ECN_35220_35290")_ - 1 x_("MLX_ESB_34800_34875",_"ESB_ERC_35250_35330")_ - 1 x_("MLX_ESB_34800_34875",_"ESB_MLX_35740_35815")_ - 1 x_("MLX_ESB_34800_34875",_"ESB_GNY_35500_35575")_ - 1 x_("MLX_ESB_34800_34875",_"ESB_SAW_35160_35220")_ = 0
mp_c2_HTY_ESB_34800_34875_: 1 x_("ESB_HTY_34310_34390",_"HTY_ESB_34800_34875")_ - 1 x_("HTY_ESB_34800_34875",_"ESB_ADA_35520_35580")_ - 1 x_("HTY_ESB_34800_34875",_"ESB_SZF_35540_35600")_ - 1 x_("HTY_ESB_34800_34875",_"ESB_HTY_35750_35830")_ - 1 x_("HTY_ESB_34800_34875",_"ESB_ECN_35745_35815")_ - 1 x_("HTY_ESB_34800_34875",_"ESB_BAL_34945_35035")_ - 1 x_("HTY_ESB_34800_34875",_"ESB_SAW_34920_34980")_ - 1 x_("HTY_ESB_34800_34875",_"ESB_SAW_35280_35340")_ - 1 x_("HTY_ESB_34800_34875",_"ESB_ADB_35370_35450")_ - 1 x_("HTY_ESB_34800_34875",_"ESB_AYT_35100_35165")_ - 1 x_("HTY_ESB_34800_34875",_"ESB_TZX_34920_35000")_ - 1 x_("HTY_ESB_34800_34875",_"ESB_MQM_35210_35305")_ - 1 x_("HTY_ESB_34800_34875",_"ESB_AJI_34930_35025")_ - 1 x_("HTY_ESB_34800_34875",_"ESB_VAN_35005_35100")_ - 1 x_("HTY_ESB_34800_34875",_"ESB_YEI_35755_35815")_ - 1 x_("HTY_ESB_34800_34875",_"ESB_ECN_35220_35290")_ - 1 x_("HTY_ESB_34800_34875",_"ESB_ERC_35250_35330")_ - 1 x_("HTY_ESB_34800_34875",_"ESB_MLX_35740_35815")_ - 1 x_("HTY_ESB_34800_34875",_"ESB_GNY_35500_35575")_ - 1 x_("HTY_ESB_34800_34875",_"ESB_SAW_35160_35220")_ = 0
mp_c2_SAW_ESB_34860_34920_: 1 x_("ADB_SAW_33455_33515",_"SAW_ESB_34860_34920")_ + 1 x_("ESB_SAW_33480_33540",_"SAW_ESB_34860_34920")_ + 1 x_("TZX_SAW_33720_33825",_"SAW_ESB_34860_34920")_ + 1 x_("ESB_SAW_33720_33780",_"SAW_ESB_34860_34920")_ + 1 x_("ESB_SAW_33840_33900",_"SAW_ESB_34860_34920")_ + 1 x_("VAS_SAW_33925_34005",_"SAW_ESB_34860_34920")_ + 1 x_("AYT_SAW_33930_33995",_"SAW_ESB_34860_34920")_ + 1 x_("ADB_SAW_34145_34205",_"SAW_ESB_34860_34920")_ + 1 x_("ASR_SAW_34215_34305",_"SAW_ESB_34860_34920")_ - 1 x_("SAW_ESB_34860_34920",_"ESB_TZX_36360_36440")_ - 1 x_("SAW_ESB_34860_34920",_"ESB_ADA_35520_35580")_ - 1 x_("SAW_ESB_34860_34920",_"ESB_SZF_35540_35600")_ - 1 x_("SAW_ESB_34860_34920",_"ESB_HTY_35750_35830")_ - 1 x_("SAW_ESB_34860_34920",_"ESB_ECN_35745_35815")_ - 1 x_("SAW_ESB_34860_34920",_"ESB_SAW_35280_35340")_ - 1 x_("SAW_ESB_34860_34920",_"ESB_ADB_35370_35450")_ - 1 x_("SAW_ESB_34860_34920",_"ESB_AYT_35100_35165")_ - 1 x_("SAW_ESB_34860_34920",_"ESB_MQM_35210_35305")_ - 1 x_("SAW_ESB_34860_34920",_"ESB_VAN_35005_35100")_ - 1 x_("SAW_ESB_34860_34920",_"ESB_SAW_36360_36420")_ - 1 x_("SAW_ESB_34860_34920",_"ESB_YEI_35755_35815")_ - 1 x_("SAW_ESB_34860_34920",_"ESB_ECN_35220_35290")_ - 1 x_("SAW_ESB_34860_34920",_"ESB_ERC_35250_35330")_ - 1 x_("SAW_ESB_34860_34920",_"ESB_MLX_35740_35815")_ - 1 x_("SAW_ESB_34860_34920",_"ESB_GNY_35500_35575")_ - 1 x_("SAW_ESB_34860_34920",_"ESB_SAW_35160_35220")_ = 0
mp_c2_ADB_SAW_34895_34955_: 1 x_("ESB_ADB_33930_34010",_"ADB_SAW_34895_34955")_ + 1 x_("SAW_ADB_34050_34110",_"ADB_SAW_34895_34955")_ + 1 x_("SAW_ADB_34800_34860",_"ADB_SAW_34895_34955")_ - 1 x_("ADB_SAW_34895_34955",_"SAW_NAJ_35030_35170")_ - 1 x_("ADB_SAW_34895_34955",_"SAW_ESB_35040_35100")_ - 1 x_("ADB_SAW_34895_34955",_"SAW_ADB_35490_35550")_ - 1 x_("ADB_SAW_34895_34955",_"SAW_TZX_35025_35125")_ - 1 x_("ADB_SAW_34895_34955",_"SAW_ADB_36240_36300")_ - 1 x_("ADB_SAW_34895_34955",_"SAW_ESB_35400_35460")_ - 1 x_("ADB_SAW_34895_34955",_"SAW_AYT_35265_35330")_ - 1 x_("ADB_SAW_34895_34955",_"SAW_KYA_35550_35620")_ - 1 x_("ADB_SAW_34895_34955",_"SAW_ESB_36300_36360")_ - 1 x_("ADB_SAW_34895_34955",_"SAW_ASR_35535_35620")_ = 0
mp_c2_ESB_SAW_34920_34980_: 1 x_("SAW_ESB_33420_33480",_"ESB_SAW_34920_34980")_ + 1 x_("TZX_ESB_33595_33675",_"ESB_SAW_34920_34980")_ + 1 x_("SAW_ESB_33600_33660",_"ESB_SAW_34920_34980")_ + 1 x_("AJI_ESB_33620_33725",_"ESB_SAW_34920_34980")_ + 1 x_("BAL_ESB_33630_33725",_"ESB_SAW_34920_34980")_ + 1 x_("VAN_ESB_33695_33800",_"ESB_SAW_34920_34980")_ + 1 x_("MQM_ESB_33900_33995",_"ESB_SAW_34920_34980")_ + 1 x_("ERC_ESB_33925_34005",_"ESB_SAW_34920_34980")_ + 1 x_("SAW_ESB_33960_34020",_"ESB_SAW_34920_34980")_ + 1 x_("ADB_ESB_34045_34120",_"ESB_SAW_34920_34980")_ + 1 x_("GNY_ESB_34170_34250",_"ESB_SAW_34920_34980")_ + 1 x_("ADA_ESB_34180_34245",_"ESB_SAW_34920_34980")_ + 1 x_("SZF_ESB_34195_34255",_"ESB_SAW_34920_34980")_ + 1 x_("ECN_ESB_34800_34870",_"ESB_SAW_34920_34980")_ + 1 x_("YEI_ESB_34800_34860",_"ESB_SAW_34920_34980")_ + 1 x_("MLX_ESB_34800_34875",_"ESB_SAW_34920_34980")_ + 1 x_("HTY_ESB_34800_34875",_"ESB_SAW_34920_34980")_ - 1 x_("ESB_SAW_34920_34980",_"SAW_NAJ_35030_35170")_ - 1 x_("ESB_SAW_34920_34980",_"SAW_ESB_35040_35100")_ - 1 x_("ESB_SAW_34920_34980",_"SAW_ADB_35490_35550")_ - 1 x_("ESB_SAW_34920_34980",_"SAW_TZX_35025_35125")_ - 1 x_("ESB_SAW_34920_34980",_"SAW_ADB_36240_36300")_ - 1 x_("ESB_SAW_34920_34980",_"SAW_ESB_35400_35460")_ - 1 x_("ESB_SAW_34920_34980",_"SAW_AYT_35265_35330")_ - 1 x_("ESB_SAW_34920_34980",_"SAW_KYA_35550_35620")_ - 1 x_("ESB_SAW_34920_34980",_"SAW_ESB_36300_36360")_ - 1 x_("ESB_SAW_34920_34980",_"SAW_ASR_35535_35620")_ = 0
mp_c2_ESB_TZX_34920_35000_: 1 x_("SAW_ESB_33420_33480",_"ESB_TZX_34920_35000")_ + 1 x_("TZX_ESB_33595_33675",_"ESB_TZX_34920_35000")_ + 1 x_("SAW_ESB_33600_33660",_"ESB_TZX_34920_35000")_ + 1 x_("AJI_ESB_33620_33725",_"ESB_TZX_34920_35000")_ + 1 x_("BAL_ESB_33630_33725",_"ESB_TZX_34920_35000")_ + 1 x_("VAN_ESB_33695_33800",_"ESB_TZX_34920_35000")_ + 1 x_("MQM_ESB_33900_33995",_"ESB_TZX_34920_35000")_ + 1 x_("ERC_ESB_33925_34005",_"ESB_TZX_34920_35000")_ + 1 x_("SAW_ESB_33960_34020",_"ESB_TZX_34920_35000")_ + 1 x_("ADB_ESB_34045_34120",_"ESB_TZX_34920_35000")_ + 1 x_("GNY_ESB_34170_34250",_"ESB_TZX_34920_35000")_ + 1 x_("ADA_ESB_34180_34245",_"ESB_TZX_34920_35000")_ + 1 x_("SZF_ESB_34195_34255",_"ESB_TZX_34920_35000")_ + 1 x_("ECN_ESB_34800_34870",_"ESB_TZX_34920_35000")_ + 1 x_("YEI_ESB_34800_34860",_"ESB_TZX_34920_35000")_ + 1 x_("MLX_ESB_34800_34875",_"ESB_TZX_34920_35000")_ + 1 x_("HTY_ESB_34800_34875",_"ESB_TZX_34920_35000")_ - 1 x_("ESB_TZX_34920_35000",_"TZX_SAW_35160_35265")_ - 1 x_("ESB_TZX_34920_35000",_"TZX_ESB_35035_35115")_ = 0
mp_c2_ESB_AJI_34930_35025_: 1 x_("TZX_ESB_33595_33675",_"ESB_AJI_34930_35025")_ + 1 x_("SAW_ESB_33600_33660",_"ESB_AJI_34930_35025")_ + 1 x_("AJI_ESB_33620_33725",_"ESB_AJI_34930_35025")_ + 1 x_("BAL_ESB_33630_33725",_"ESB_AJI_34930_35025")_ + 1 x_("VAN_ESB_33695_33800",_"ESB_AJI_34930_35025")_ + 1 x_("MQM_ESB_33900_33995",_"ESB_AJI_34930_35025")_ + 1 x_("ERC_ESB_33925_34005",_"ESB_AJI_34930_35025")_ + 1 x_("SAW_ESB_33960_34020",_"ESB_AJI_34930_35025")_ + 1 x_("ADB_ESB_34045_34120",_"ESB_AJI_34930_35025")_ + 1 x_("GNY_ESB_34170_34250",_"ESB_AJI_34930_35025")_ + 1 x_("ADA_ESB_34180_34245",_"ESB_AJI_34930_35025")_ + 1 x_("SZF_ESB_34195_34255",_"ESB_AJI_34930_35025")_ + 1 x_("ECN_ESB_34800_34870",_"ESB_AJI_34930_35025")_ + 1 x_("YEI_ESB_34800_34860",_"ESB_AJI_34930_35025")_ + 1 x_("MLX_ESB_34800_34875",_"ESB_AJI_34930_35025")_ + 1 x_("HTY_ESB_34800_34875",_"ESB_AJI_34930_35025")_ - 1 x_("ESB_AJI_34930_35025",_"AJI_ESB_35060_35165")_ = 0
mp_c2_ESB_BAL_34945_35035_: 1 x_("TZX_ESB_33595_33675",_"ESB_BAL_34945_35035")_ + 1 x_("SAW_ESB_33600_33660",_"ESB_BAL_34945_35035")_ + 1 x_("AJI_ESB_33620_33725",_"ESB_BAL_34945_35035")_ + 1 x_("BAL_ESB_33630_33725",_"ESB_BAL_34945_35035")_ + 1 x_("VAN_ESB_33695_33800",_"ESB_BAL_34945_35035")_ + 1 x_("MQM_ESB_33900_33995",_"ESB_BAL_34945_35035")_ + 1 x_("ERC_ESB_33925_34005",_"ESB_BAL_34945_35035")_ + 1 x_("SAW_ESB_33960_34020",_"ESB_BAL_34945_35035")_ + 1 x_("ADB_ESB_34045_34120",_"ESB_BAL_34945_35035")_ + 1 x_("GNY_ESB_34170_34250",_"ESB_BAL_34945_35035")_ + 1 x_("ADA_ESB_34180_34245",_"ESB_BAL_34945_35035")_ + 1 x_("SZF_ESB_34195_34255",_"ESB_BAL_34945_35035")_ + 1 x_("ECN_ESB_34800_34870",_"ESB_BAL_34945_35035")_ + 1 x_("YEI_ESB_34800_34860",_"ESB_BAL_34945_35035")_ + 1 x_("MLX_ESB_34800_34875",_"ESB_BAL_34945_35035")_ + 1 x_("HTY_ESB_34800_34875",_"ESB_BAL_34945_35035")_ - 1 x_("ESB_BAL_34945_35035",_"BAL_ESB_35070_35165")_ = 0
mp_c2_ESB_VAN_35005_35100_: 1 x_("TZX_ESB_33595_33675",_"ESB_VAN_35005_35100")_ + 1 x_("SAW_ESB_33600_33660",_"ESB_VAN_35005_35100")_ + 1 x_("AJI_ESB_33620_33725",_"ESB_VAN_35005_35100")_ + 1 x_("BAL_ESB_33630_33725",_"ESB_VAN_35005_35100")_ + 1 x_("VAN_ESB_33695_33800",_"ESB_VAN_35005_35100")_ + 1 x_("MQM_ESB_33900_33995",_"ESB_VAN_35005_35100")_ + 1 x_("ERC_ESB_33925_34005",_"ESB_VAN_35005_35100")_ + 1 x_("SAW_ESB_33960_34020",_"ESB_VAN_35005_35100")_ + 1 x_("ADB_ESB_34045_34120",_"ESB_VAN_35005_35100")_ + 1 x_("GNY_ESB_34170_34250",_"ESB_VAN_35005_35100")_ + 1 x_("ADA_ESB_34180_34245",_"ESB_VAN_35005_35100")_ + 1 x_("SZF_ESB_34195_34255",_"ESB_VAN_35005_35100")_ + 1 x_("ECN_ESB_34800_34870",_"ESB_VAN_35005_35100")_ + 1 x_("YEI_ESB_34800_34860",_"ESB_VAN_35005_35100")_ + 1 x_("MLX_ESB_34800_34875",_"ESB_VAN_35005_35100")_ + 1 x_("HTY_ESB_34800_34875",_"ESB_VAN_35005_35100")_ + 1 x_("SAW_ESB_34860_34920",_"ESB_VAN_35005_35100")_ - 1 x_("ESB_VAN_35005_35100",_"VAN_ESB_35135_35240")_ = 0
mp_c2_SAW_TZX_35025_35125_: 1 x_("TZX_SAW_33720_33825",_"SAW_TZX_35025_35125")_ + 1 x_("ESB_SAW_33720_33780",_"SAW_TZX_35025_35125")_ + 1 x_("ESB_SAW_33840_33900",_"SAW_TZX_35025_35125")_ + 1 x_("VAS_SAW_33925_34005",_"SAW_TZX_35025_35125")_ + 1 x_("AYT_SAW_33930_33995",_"SAW_TZX_35025_35125")_ + 1 x_("ADB_SAW_34145_34205",_"SAW_TZX_35025_35125")_ + 1 x_("ASR_SAW_34215_34305",_"SAW_TZX_35025_35125")_ + 1 x_("ADB_SAW_34895_34955",_"SAW_TZX_35025_35125")_ + 1 x_("ESB_SAW_34920_34980",_"SAW_TZX_35025_35125")_ - 1 x_("SAW_TZX_35025_35125",_"TZX_SAW_35160_35265")_ - 1 x_("SAW_TZX_35025_35125",_"TZX_ESB_36475_36555")_ = 0
mp_c2_SAW_NAJ_35030_35170_: 1 x_("TZX_SAW_33720_33825",_"SAW_NAJ_35030_35170")_ + 1 x_("ESB_SAW_33720_33780",_"SAW_NAJ_35030_35170")_ + 1 x_("ESB_SAW_33840_33900",_"SAW_NAJ_35030_35170")_ + 1 x_("VAS_SAW_33925_34005",_"SAW_NAJ_35030_35170")_ + 1 x_("AYT_SAW_33930_33995",_"SAW_NAJ_35030_35170")_ + 1 x_("ADB_SAW_34145_34205",_"SAW_NAJ_35030_35170")_ + 1 x_("ASR_SAW_34215_34305",_"SAW_NAJ_35030_35170")_ + 1 x_("ADB_SAW_34895_34955",_"SAW_NAJ_35030_35170")_ + 1 x_("ESB_SAW_34920_34980",_"SAW_NAJ_35030_35170")_ - 1 x_("SAW_NAJ_35030_35170",_"NAJ_SAW_35235_35390")_ = 0
mp_c2_TZX_ESB_35035_35115_: 1 x_("SAW_TZX_33585_33685",_"TZX_ESB_35035_35115")_ + 1 x_("ESB_TZX_34920_35000",_"TZX_ESB_35035_35115")_ - 1 x_("TZX_ESB_35035_35115",_"ESB_TZX_36360_36440")_ - 1 x_("TZX_ESB_35035_35115",_"ESB_ADA_35520_35580")_ - 1 x_("TZX_ESB_35035_35115",_"ESB_SZF_35540_35600")_ - 1 x_("TZX_ESB_35035_35115",_"ESB_HTY_35750_35830")_ - 1 x_("TZX_ESB_35035_35115",_"ESB_ECN_35745_35815")_ - 1 x_("TZX_ESB_35035_35115",_"ESB_BAL_36385_36475")_ - 1 x_("TZX_ESB_35035_35115",_"ESB_AJI_36370_36465")_ - 1 x_("TZX_ESB_35035_35115",_"ESB_SAW_35280_35340")_ - 1 x_("TZX_ESB_35035_35115",_"ESB_ADB_35370_35450")_ - 1 x_("TZX_ESB_35035_35115",_"ESB_MQM_35210_35305")_ - 1 x_("TZX_ESB_35035_35115",_"ESB_SAW_36360_36420")_ - 1 x_("TZX_ESB_35035_35115",_"ESB_YEI_35755_35815")_ - 1 x_("TZX_ESB_35035_35115",_"ESB_ECN_35220_35290")_ - 1 x_("TZX_ESB_35035_35115",_"ESB_ERC_35250_35330")_ - 1 x_("TZX_ESB_35035_35115",_"ESB_MLX_35740_35815")_ - 1 x_("TZX_ESB_35035_35115",_"ESB_VAN_36445_36540")_ - 1 x_("TZX_ESB_35035_35115",_"ESB_GNY_35500_35575")_ - 1 x_("TZX_ESB_35035_35115",_"ESB_SAW_35160_35220")_ = 0
mp_c2_SAW_ESB_35040_35100_: 1 x_("TZX_SAW_33720_33825",_"SAW_ESB_35040_35100")_ + 1 x_("ESB_SAW_33720_33780",_"SAW_ESB_35040_35100")_ + 1 x_("ESB_SAW_33840_33900",_"SAW_ESB_35040_35100")_ + 1 x_("VAS_SAW_33925_34005",_"SAW_ESB_35040_35100")_ + 1 x_("AYT_SAW_33930_33995",_"SAW_ESB_35040_35100")_ + 1 x_("ADB_SAW_34145_34205",_"SAW_ESB_35040_35100")_ + 1 x_("ASR_SAW_34215_34305",_"SAW_ESB_35040_35100")_ + 1 x_("ADB_SAW_34895_34955",_"SAW_ESB_35040_35100")_ + 1 x_("ESB_SAW_34920_34980",_"SAW_ESB_35040_35100")_ - 1 x_("SAW_ESB_35040_35100",_"ESB_TZX_36360_36440")_ - 1 x_("SAW_ESB_35040_35100",_"ESB_ADA_35520_35580")_ - 1 x_("SAW_ESB_35040_35100",_"ESB_SZF_35540_35600")_ - 1 x_("SAW_ESB_35040_35100",_"ESB_HTY_35750_35830")_ - 1 x_("SAW_ESB_35040_35100",_"ESB_ECN_35745_35815")_ - 1 x_("SAW_ESB_35040_35100",_"ESB_BAL_36385_36475")_ - 1 x_("SAW_ESB_35040_35100",_"ESB_AJI_36370_36465")_ - 1 x_("SAW_ESB_35040_35100",_"ESB_SAW_35280_35340")_ - 1 x_("SAW_ESB_35040_35100",_"ESB_ADB_35370_35450")_ - 1 x_("SAW_ESB_35040_35100",_"ESB_MQM_35210_35305")_ - 1 x_("SAW_ESB_35040_35100",_"ESB_SAW_36360_36420")_ - 1 x_("SAW_ESB_35040_35100",_"ESB_YEI_35755_35815")_ - 1 x_("SAW_ESB_35040_35100",_"ESB_ECN_35220_35290")_ - 1 x_("SAW_ESB_35040_35100",_"ESB_ERC_35250_35330")_ - 1 x_("SAW_ESB_35040_35100",_"ESB_MLX_35740_35815")_ - 1 x_("SAW_ESB_35040_35100",_"ESB_VAN_36445_36540")_ - 1 x_("SAW_ESB_35040_35100",_"ESB_GNY_35500_35575")_ - 1 x_("SAW_ESB_35040_35100",_"ESB_SAW_35160_35220")_ = 0
mp_c2_AJI_ESB_35060_35165_: 1 x_("ESB_AJI_34930_35025",_"AJI_ESB_35060_35165")_ - 1 x_("AJI_ESB_35060_35165",_"ESB_TZX_36360_36440")_ - 1 x_("AJI_ESB_35060_35165",_"ESB_ADA_35520_35580")_ - 1 x_("AJI_ESB_35060_35165",_"ESB_SZF_35540_35600")_ - 1 x_("AJI_ESB_35060_35165",_"ESB_HTY_35750_35830")_ - 1 x_("AJI_ESB_35060_35165",_"ESB_ECN_35745_35815")_ - 1 x_("AJI_ESB_35060_35165",_"ESB_BAL_36385_36475")_ - 1 x_("AJI_ESB_35060_35165",_"ESB_AJI_36370_36465")_ - 1 x_("AJI_ESB_35060_35165",_"ESB_SAW_35280_35340")_ - 1 x_("AJI_ESB_35060_35165",_"ESB_ADB_35370_35450")_ - 1 x_("AJI_ESB_35060_35165",_"ESB_MQM_35210_35305")_ - 1 x_("AJI_ESB_35060_35165",_"ESB_SAW_36360_36420")_ - 1 x_("AJI_ESB_35060_35165",_"ESB_YEI_35755_35815")_ - 1 x_("AJI_ESB_35060_35165",_"ESB_ECN_35220_35290")_ - 1 x_("AJI_ESB_35060_35165",_"ESB_ERC_35250_35330")_ - 1 x_("AJI_ESB_35060_35165",_"ESB_MLX_35740_35815")_ - 1 x_("AJI_ESB_35060_35165",_"ESB_VAN_36445_36540")_ - 1 x_("AJI_ESB_35060_35165",_"ESB_GNY_35500_35575")_ - 1 x_("AJI_ESB_35060_35165",_"ESB_SAW_36600_36660")_ = 0
mp_c2_BAL_ESB_35070_35165_: 1 x_("ESB_BAL_34945_35035",_"BAL_ESB_35070_35165")_ - 1 x_("BAL_ESB_35070_35165",_"ESB_TZX_36360_36440")_ - 1 x_("BAL_ESB_35070_35165",_"ESB_ADA_35520_35580")_ - 1 x_("BAL_ESB_35070_35165",_"ESB_SZF_35540_35600")_ - 1 x_("BAL_ESB_35070_35165",_"ESB_HTY_35750_35830")_ - 1 x_("BAL_ESB_35070_35165",_"ESB_ECN_35745_35815")_ - 1 x_("BAL_ESB_35070_35165",_"ESB_BAL_36385_36475")_ - 1 x_("BAL_ESB_35070_35165",_"ESB_AJI_36370_36465")_ - 1 x_("BAL_ESB_35070_35165",_"ESB_SAW_35280_35340")_ - 1 x_("BAL_ESB_35070_35165",_"ESB_ADB_35370_35450")_ - 1 x_("BAL_ESB_35070_35165",_"ESB_MQM_35210_35305")_ - 1 x_("BAL_ESB_35070_35165",_"ESB_SAW_36360_36420")_ - 1 x_("BAL_ESB_35070_35165",_"ESB_YEI_35755_35815")_ - 1 x_("BAL_ESB_35070_35165",_"ESB_ECN_35220_35290")_ - 1 x_("BAL_ESB_35070_35165",_"ESB_ERC_35250_35330")_ - 1 x_("BAL_ESB_35070_35165",_"ESB_MLX_35740_35815")_ - 1 x_("BAL_ESB_35070_35165",_"ESB_VAN_36445_36540")_ - 1 x_("BAL_ESB_35070_35165",_"ESB_GNY_35500_35575")_ - 1 x_("BAL_ESB_35070_35165",_"ESB_SAW_36600_36660")_ = 0
mp_c2_ESB_AYT_35100_35165_: 1 x_("TZX_ESB_33595_33675",_"ESB_AYT_35100_35165")_ + 1 x_("SAW_ESB_33600_33660",_"ESB_AYT_35100_35165")_ + 1 x_("AJI_ESB_33620_33725",_"ESB_AYT_35100_35165")_ + 1 x_("BAL_ESB_33630_33725",_"ESB_AYT_35100_35165")_ + 1 x_("VAN_ESB_33695_33800",_"ESB_AYT_35100_35165")_ + 1 x_("MQM_ESB_33900_33995",_"ESB_AYT_35100_35165")_ + 1 x_("ERC_ESB_33925_34005",_"ESB_AYT_35100_35165")_ + 1 x_("SAW_ESB_33960_34020",_"ESB_AYT_35100_35165")_ + 1 x_("ADB_ESB_34045_34120",_"ESB_AYT_35100_35165")_ + 1 x_("GNY_ESB_34170_34250",_"ESB_AYT_35100_35165")_ + 1 x_("ADA_ESB_34180_34245",_"ESB_AYT_35100_35165")_ + 1 x_("SZF_ESB_34195_34255",_"ESB_AYT_35100_35165")_ + 1 x_("ECN_ESB_34800_34870",_"ESB_AYT_35100_35165")_ + 1 x_("YEI_ESB_34800_34860",_"ESB_AYT_35100_35165")_ + 1 x_("MLX_ESB_34800_34875",_"ESB_AYT_35100_35165")_ + 1 x_("HTY_ESB_34800_34875",_"ESB_AYT_35100_35165")_ + 1 x_("SAW_ESB_34860_34920",_"ESB_AYT_35100_35165")_ - 1 x_("ESB_AYT_35100_35165",_"AYT_SAW_35370_35435")_ - 1 x_("ESB_AYT_35100_35165",_"AYT_ESB_35200_35265")_ = 0
mp_c2_VAN_ESB_35135_35240_: 1 x_("ESB_VAN_35005_35100",_"VAN_ESB_35135_35240")_ - 1 x_("VAN_ESB_35135_35240",_"ESB_TZX_36360_36440")_ - 1 x_("VAN_ESB_35135_35240",_"ESB_ADA_35520_35580")_ - 1 x_("VAN_ESB_35135_35240",_"ESB_SZF_35540_35600")_ - 1 x_("VAN_ESB_35135_35240",_"ESB_HTY_35750_35830")_ - 1 x_("VAN_ESB_35135_35240",_"ESB_MQM_36650_36745")_ - 1 x_("VAN_ESB_35135_35240",_"ESB_ECN_35745_35815")_ - 1 x_("VAN_ESB_35135_35240",_"ESB_BAL_36385_36475")_ - 1 x_("VAN_ESB_35135_35240",_"ESB_AJI_36370_36465")_ - 1 x_("VAN_ESB_35135_35240",_"ESB_SAW_35280_35340")_ - 1 x_("VAN_ESB_35135_35240",_"ESB_ECN_36660_36730")_ - 1 x_("VAN_ESB_35135_35240",_"ESB_ADB_35370_35450")_ - 1 x_("VAN_ESB_35135_35240",_"ESB_SAW_36360_36420")_ - 1 x_("VAN_ESB_35135_35240",_"ESB_YEI_35755_35815")_ - 1 x_("VAN_ESB_35135_35240",_"ESB_MLX_35740_35815")_ - 1 x_("VAN_ESB_35135_35240",_"ESB_VAN_36445_36540")_ - 1 x_("VAN_ESB_35135_35240",_"ESB_GNY_35500_35575")_ - 1 x_("VAN_ESB_35135_35240",_"ESB_SAW_36600_36660")_ = 0
mp_c2_ESB_SAW_35160_35220_: 1 x_("AJI_ESB_33620_33725",_"ESB_SAW_35160_35220")_ + 1 x_("BAL_ESB_33630_33725",_"ESB_SAW_35160_35220")_ + 1 x_("VAN_ESB_33695_33800",_"ESB_SAW_35160_35220")_ + 1 x_("MQM_ESB_33900_33995",_"ESB_SAW_35160_35220")_ + 1 x_("ERC_ESB_33925_34005",_"ESB_SAW_35160_35220")_ + 1 x_("SAW_ESB_33960_34020",_"ESB_SAW_35160_35220")_ + 1 x_("ADB_ESB_34045_34120",_"ESB_SAW_35160_35220")_ + 1 x_("GNY_ESB_34170_34250",_"ESB_SAW_35160_35220")_ + 1 x_("ADA_ESB_34180_34245",_"ESB_SAW_35160_35220")_ + 1 x_("SZF_ESB_34195_34255",_"ESB_SAW_35160_35220")_ + 1 x_("ECN_ESB_34800_34870",_"ESB_SAW_35160_35220")_ + 1 x_("YEI_ESB_34800_34860",_"ESB_SAW_35160_35220")_ + 1 x_("MLX_ESB_34800_34875",_"ESB_SAW_35160_35220")_ + 1 x_("HTY_ESB_34800_34875",_"ESB_SAW_35160_35220")_ + 1 x_("SAW_ESB_34860_34920",_"ESB_SAW_35160_35220")_ + 1 x_("TZX_ESB_35035_35115",_"ESB_SAW_35160_35220")_ + 1 x_("SAW_ESB_35040_35100",_"ESB_SAW_35160_35220")_ - 1 x_("ESB_SAW_35160_35220",_"SAW_ESB_36480_36540")_ - 1 x_("ESB_SAW_35160_35220",_"SAW_ADB_35490_35550")_ - 1 x_("ESB_SAW_35160_35220",_"SAW_ADB_36240_36300")_ - 1 x_("ESB_SAW_35160_35220",_"SAW_ESB_35400_35460")_ - 1 x_("ESB_SAW_35160_35220",_"SAW_AYT_35265_35330")_ - 1 x_("ESB_SAW_35160_35220",_"SAW_KYA_35550_35620")_ - 1 x_("ESB_SAW_35160_35220",_"SAW_ESB_36300_36360")_ - 1 x_("ESB_SAW_35160_35220",_"SAW_TZX_36465_36565")_ - 1 x_("ESB_SAW_35160_35220",_"SAW_ASR_35535_35620")_ = 0
mp_c2_TZX_SAW_35160_35265_: 1 x_("ESB_TZX_34920_35000",_"TZX_SAW_35160_35265")_ + 1 x_("SAW_TZX_35025_35125",_"TZX_SAW_35160_35265")_ - 1 x_("TZX_SAW_35160_35265",_"SAW_ESB_36480_36540")_ - 1 x_("TZX_SAW_35160_35265",_"SAW_ADB_35490_35550")_ - 1 x_("TZX_SAW_35160_35265",_"SAW_ADB_36240_36300")_ - 1 x_("TZX_SAW_35160_35265",_"SAW_ESB_35400_35460")_ - 1 x_("TZX_SAW_35160_35265",_"SAW_KYA_35550_35620")_ - 1 x_("TZX_SAW_35160_35265",_"SAW_VAS_36690_36770")_ - 1 x_("TZX_SAW_35160_35265",_"SAW_ESB_36300_36360")_ - 1 x_("TZX_SAW_35160_35265",_"SAW_TZX_36465_36565")_ - 1 x_("TZX_SAW_35160_35265",_"SAW_ASR_35535_35620")_ - 1 x_("TZX_SAW_35160_35265",_"SAW_AYT_36705_36770")_ = 0
mp_c2_AYT_ESB_35200_35265_: 1 x_("SAW_AYT_33825_33890",_"AYT_ESB_35200_35265")_ + 1 x_("ESB_AYT_35100_35165",_"AYT_ESB_35200_35265")_ - 1 x_("AYT_ESB_35200_35265",_"ESB_TZX_36360_36440")_ - 1 x_("AYT_ESB_35200_35265",_"ESB_ADA_35520_35580")_ - 1 x_("AYT_ESB_35200_35265",_"ESB_SZF_35540_35600")_ - 1 x_("AYT_ESB_35200_35265",_"ESB_HTY_35750_35830")_ - 1 x_("AYT_ESB_35200_35265",_"ESB_MQM_36650_36745")_ - 1 x_("AYT_ESB_35200_35265",_"ESB_ECN_35745_35815")_ - 1 x_("AYT_ESB_35200_35265",_"ESB_BAL_36385_36475")_ - 1 x_("AYT_ESB_35200_35265",_"ESB_AJI_36370_36465")_ - 1 x_("AYT_ESB_35200_35265",_"ESB_ECN_36660_36730")_ - 1 x_("AYT_ESB_35200_35265",_"ESB_ADB_35370_35450")_ - 1 x_("AYT_ESB_35200_35265",_"ESB_SAW_36360_36420")_ - 1 x_("AYT_ESB_35200_35265",_"ESB_YEI_35755_35815")_ - 1 x_("AYT_ESB_35200_35265",_"ESB_MLX_35740_35815")_ - 1 x_("AYT_ESB_35200_35265",_"ESB_VAN_36445_36540")_ - 1 x_("AYT_ESB_35200_35265",_"ESB_ERC_36690_36770")_ - 1 x_("AYT_ESB_35200_35265",_"ESB_GNY_35500_35575")_ - 1 x_("AYT_ESB_35200_35265",_"ESB_SAW_36600_36660")_ = 0
mp_c2_ESB_MQM_35210_35305_: 1 x_("VAN_ESB_33695_33800",_"ESB_MQM_35210_35305")_ + 1 x_("MQM_ESB_33900_33995",_"ESB_MQM_35210_35305")_ + 1 x_("ERC_ESB_33925_34005",_"ESB_MQM_35210_35305")_ + 1 x_("SAW_ESB_33960_34020",_"ESB_MQM_35210_35305")_ + 1 x_("ADB_ESB_34045_34120",_"ESB_MQM_35210_35305")_ + 1 x_("GNY_ESB_34170_34250",_"ESB_MQM_35210_35305")_ + 1 x_("ADA_ESB_34180_34245",_"ESB_MQM_35210_35305")_ + 1 x_("SZF_ESB_34195_34255",_"ESB_MQM_35210_35305")_ + 1 x_("ECN_ESB_34800_34870",_"ESB_MQM_35210_35305")_ + 1 x_("YEI_ESB_34800_34860",_"ESB_MQM_35210_35305")_ + 1 x_("MLX_ESB_34800_34875",_"ESB_MQM_35210_35305")_ + 1 x_("HTY_ESB_34800_34875",_"ESB_MQM_35210_35305")_ + 1 x_("SAW_ESB_34860_34920",_"ESB_MQM_35210_35305")_ + 1 x_("TZX_ESB_35035_35115",_"ESB_MQM_35210_35305")_ + 1 x_("SAW_ESB_35040_35100",_"ESB_MQM_35210_35305")_ + 1 x_("AJI_ESB_35060_35165",_"ESB_MQM_35210_35305")_ + 1 x_("BAL_ESB_35070_35165",_"ESB_MQM_35210_35305")_ - 1 x_("ESB_MQM_35210_35305",_"MQM_ESB_35340_35435")_ = 0
mp_c2_ESB_ECN_35220_35290_: 1 x_("VAN_ESB_33695_33800",_"ESB_ECN_35220_35290")_ + 1 x_("MQM_ESB_33900_33995",_"ESB_ECN_35220_35290")_ + 1 x_("ERC_ESB_33925_34005",_"ESB_ECN_35220_35290")_ + 1 x_("SAW_ESB_33960_34020",_"ESB_ECN_35220_35290")_ + 1 x_("ADB_ESB_34045_34120",_"ESB_ECN_35220_35290")_ + 1 x_("GNY_ESB_34170_34250",_"ESB_ECN_35220_35290")_ + 1 x_("ADA_ESB_34180_34245",_"ESB_ECN_35220_35290")_ + 1 x_("SZF_ESB_34195_34255",_"ESB_ECN_35220_35290")_ + 1 x_("ECN_ESB_34800_34870",_"ESB_ECN_35220_35290")_ + 1 x_("YEI_ESB_34800_34860",_"ESB_ECN_35220_35290")_ + 1 x_("MLX_ESB_34800_34875",_"ESB_ECN_35220_35290")_ + 1 x_("HTY_ESB_34800_34875",_"ESB_ECN_35220_35290")_ + 1 x_("SAW_ESB_34860_34920",_"ESB_ECN_35220_35290")_ + 1 x_("TZX_ESB_35035_35115",_"ESB_ECN_35220_35290")_ + 1 x_("SAW_ESB_35040_35100",_"ESB_ECN_35220_35290")_ + 1 x_("AJI_ESB_35060_35165",_"ESB_ECN_35220_35290")_ + 1 x_("BAL_ESB_35070_35165",_"ESB_ECN_35220_35290")_ - 1 x_("ESB_ECN_35220_35290",_"ECN_ESB_35615_35685")_ - 1 x_("ESB_ECN_35220_35290",_"ECN_HTY_35400_35465")_ - 1 x_("ESB_ECN_35220_35290",_"ECN_ESB_36240_36310")_ = 0
mp_c2_NAJ_SAW_35235_35390_: 1 x_("SAW_NAJ_35030_35170",_"NAJ_SAW_35235_35390")_ - 1 x_("NAJ_SAW_35235_35390",_"SAW_ESB_36480_36540")_ - 1 x_("NAJ_SAW_35235_35390",_"SAW_ADB_35490_35550")_ - 1 x_("NAJ_SAW_35235_35390",_"SAW_ADB_36240_36300")_ - 1 x_("NAJ_SAW_35235_35390",_"SAW_KYA_35550_35620")_ - 1 x_("NAJ_SAW_35235_35390",_"SAW_VAS_36690_36770")_ - 1 x_("NAJ_SAW_35235_35390",_"SAW_ESB_36300_36360")_ - 1 x_("NAJ_SAW_35235_35390",_"SAW_TZX_36465_36565")_ - 1 x_("NAJ_SAW_35235_35390",_"SAW_ASR_35535_35620")_ - 1 x_("NAJ_SAW_35235_35390",_"SAW_AYT_36705_36770")_ = 0
mp_c2_ESB_ERC_35250_35330_: 1 x_("MQM_ESB_33900_33995",_"ESB_ERC_35250_35330")_ + 1 x_("ERC_ESB_33925_34005",_"ESB_ERC_35250_35330")_ + 1 x_("SAW_ESB_33960_34020",_"ESB_ERC_35250_35330")_ + 1 x_("ADB_ESB_34045_34120",_"ESB_ERC_35250_35330")_ + 1 x_("GNY_ESB_34170_34250",_"ESB_ERC_35250_35330")_ + 1 x_("ADA_ESB_34180_34245",_"ESB_ERC_35250_35330")_ + 1 x_("SZF_ESB_34195_34255",_"ESB_ERC_35250_35330")_ + 1 x_("ECN_ESB_34800_34870",_"ESB_ERC_35250_35330")_ + 1 x_("YEI_ESB_34800_34860",_"ESB_ERC_35250_35330")_ + 1 x_("MLX_ESB_34800_34875",_"ESB_ERC_35250_35330")_ + 1 x_("HTY_ESB_34800_34875",_"ESB_ERC_35250_35330")_ + 1 x_("SAW_ESB_34860_34920",_"ESB_ERC_35250_35330")_ + 1 x_("TZX_ESB_35035_35115",_"ESB_ERC_35250_35330")_ + 1 x_("SAW_ESB_35040_35100",_"ESB_ERC_35250_35330")_ + 1 x_("AJI_ESB_35060_35165",_"ESB_ERC_35250_35330")_ + 1 x_("BAL_ESB_35070_35165",_"ESB_ERC_35250_35330")_ - 1 x_("ESB_ERC_35250_35330",_"ERC_ESB_35365_35445")_ = 0
mp_c2_SAW_AYT_35265_35330_: 1 x_("TZX_SAW_33720_33825",_"SAW_AYT_35265_35330")_ + 1 x_("ESB_SAW_33840_33900",_"SAW_AYT_35265_35330")_ + 1 x_("VAS_SAW_33925_34005",_"SAW_AYT_35265_35330")_ + 1 x_("AYT_SAW_33930_33995",_"SAW_AYT_35265_35330")_ + 1 x_("ADB_SAW_34145_34205",_"SAW_AYT_35265_35330")_ + 1 x_("ASR_SAW_34215_34305",_"SAW_AYT_35265_35330")_ + 1 x_("ADB_SAW_34895_34955",_"SAW_AYT_35265_35330")_ + 1 x_("ESB_SAW_34920_34980",_"SAW_AYT_35265_35330")_ + 1 x_("ESB_SAW_35160_35220",_"SAW_AYT_35265_35330")_ - 1 x_("SAW_AYT_35265_35330",_"AYT_SAW_35370_35435")_ = 0
mp_c2_ESB_SAW_35280_35340_: 1 x_("MQM_ESB_33900_33995",_"ESB_SAW_35280_35340")_ + 1 x_("ERC_ESB_33925_34005",_"ESB_SAW_35280_35340")_ + 1 x_("SAW_ESB_33960_34020",_"ESB_SAW_35280_35340")_ + 1 x_("ADB_ESB_34045_34120",_"ESB_SAW_35280_35340")_ + 1 x_("GNY_ESB_34170_34250",_"ESB_SAW_35280_35340")_ + 1 x_("ADA_ESB_34180_34245",_"ESB_SAW_35280_35340")_ + 1 x_("SZF_ESB_34195_34255",_"ESB_SAW_35280_35340")_ + 1 x_("ECN_ESB_34800_34870",_"ESB_SAW_35280_35340")_ + 1 x_("YEI_ESB_34800_34860",_"ESB_SAW_35280_35340")_ + 1 x_("MLX_ESB_34800_34875",_"ESB_SAW_35280_35340")_ + 1 x_("HTY_ESB_34800_34875",_"ESB_SAW_35280_35340")_ + 1 x_("SAW_ESB_34860_34920",_"ESB_SAW_35280_35340")_ + 1 x_("TZX_ESB_35035_35115",_"ESB_SAW_35280_35340")_ + 1 x_("SAW_ESB_35040_35100",_"ESB_SAW_35280_35340")_ + 1 x_("AJI_ESB_35060_35165",_"ESB_SAW_35280_35340")_ + 1 x_("BAL_ESB_35070_35165",_"ESB_SAW_35280_35340")_ + 1 x_("VAN_ESB_35135_35240",_"ESB_SAW_35280_35340")_ - 1 x_("ESB_SAW_35280_35340",_"SAW_ESB_36480_36540")_ - 1 x_("ESB_SAW_35280_35340",_"SAW_ADB_35490_35550")_ - 1 x_("ESB_SAW_35280_35340",_"SAW_ADB_36240_36300")_ - 1 x_("ESB_SAW_35280_35340",_"SAW_ESB_35400_35460")_ - 1 x_("ESB_SAW_35280_35340",_"SAW_KYA_35550_35620")_ - 1 x_("ESB_SAW_35280_35340",_"SAW_VAS_36690_36770")_ - 1 x_("ESB_SAW_35280_35340",_"SAW_ESB_36300_36360")_ - 1 x_("ESB_SAW_35280_35340",_"SAW_TZX_36465_36565")_ - 1 x_("ESB_SAW_35280_35340",_"SAW_ASR_35535_35620")_ - 1 x_("ESB_SAW_35280_35340",_"SAW_AYT_36705_36770")_ = 0
mp_c2_MQM_ESB_35340_35435_: 1 x_("ESB_MQM_35210_35305",_"MQM_ESB_35340_35435")_ - 1 x_("MQM_ESB_35340_35435",_"ESB_TZX_36360_36440")_ - 1 x_("MQM_ESB_35340_35435",_"ESB_ADA_35520_35580")_ - 1 x_("MQM_ESB_35340_35435",_"ESB_ADB_36810_36890")_ - 1 x_("MQM_ESB_35340_35435",_"ESB_SZF_35540_35600")_ - 1 x_("MQM_ESB_35340_35435",_"ESB_HTY_35750_35830")_ - 1 x_("MQM_ESB_35340_35435",_"ESB_MQM_36650_36745")_ - 1 x_("MQM_ESB_35340_35435",_"ESB_ECN_35745_35815")_ - 1 x_("MQM_ESB_35340_35435",_"ESB_BAL_36385_36475")_ - 1 x_("MQM_ESB_35340_35435",_"ESB_AJI_36370_36465")_ - 1 x_("MQM_ESB_35340_35435",_"ESB_ECN_36660_36730")_ - 1 x_("MQM_ESB_35340_35435",_"ESB_SAW_36720_36780")_ - 1 x_("MQM_ESB_35340_35435",_"ESB_SAW_36360_36420")_ - 1 x_("MQM_ESB_35340_35435",_"ESB_YEI_35755_35815")_ - 1 x_("MQM_ESB_35340_35435",_"ESB_MLX_35740_35815")_ - 1 x_("MQM_ESB_35340_35435",_"ESB_VAN_36445_36540")_ - 1 x_("MQM_ESB_35340_35435",_"ESB_ERC_36690_36770")_ - 1 x_("MQM_ESB_35340_35435",_"ESB_GNY_35500_35575")_ - 1 x_("MQM_ESB_35340_35435",_"ESB_SAW_36600_36660")_ = 0
mp_c2_ERC_ESB_35365_35445_: 1 x_("ESB_ERC_35250_35330",_"ERC_ESB_35365_35445")_ - 1 x_("ERC_ESB_35365_35445",_"ESB_TZX_36360_36440")_ - 1 x_("ERC_ESB_35365_35445",_"ESB_ADA_35520_35580")_ - 1 x_("ERC_ESB_35365_35445",_"ESB_ADB_36810_36890")_ - 1 x_("ERC_ESB_35365_35445",_"ESB_SZF_35540_35600")_ - 1 x_("ERC_ESB_35365_35445",_"ESB_HTY_35750_35830")_ - 1 x_("ERC_ESB_35365_35445",_"ESB_MQM_36650_36745")_ - 1 x_("ERC_ESB_35365_35445",_"ESB_ECN_35745_35815")_ - 1 x_("ERC_ESB_35365_35445",_"ESB_BAL_36385_36475")_ - 1 x_("ERC_ESB_35365_35445",_"ESB_AJI_36370_36465")_ - 1 x_("ERC_ESB_35365_35445",_"ESB_ECN_36660_36730")_ - 1 x_("ERC_ESB_35365_35445",_"ESB_SAW_36720_36780")_ - 1 x_("ERC_ESB_35365_35445",_"ESB_SAW_36360_36420")_ - 1 x_("ERC_ESB_35365_35445",_"ESB_YEI_35755_35815")_ - 1 x_("ERC_ESB_35365_35445",_"ESB_MLX_35740_35815")_ - 1 x_("ERC_ESB_35365_35445",_"ESB_VAN_36445_36540")_ - 1 x_("ERC_ESB_35365_35445",_"ESB_ERC_36690_36770")_ - 1 x_("ERC_ESB_35365_35445",_"ESB_GNY_35500_35575")_ - 1 x_("ERC_ESB_35365_35445",_"ESB_SAW_36600_36660")_ = 0
mp_c2_ESB_ADB_35370_35450_: 1 x_("MQM_ESB_33900_33995",_"ESB_ADB_35370_35450")_ + 1 x_("ERC_ESB_33925_34005",_"ESB_ADB_35370_35450")_ + 1 x_("SAW_ESB_33960_34020",_"ESB_ADB_35370_35450")_ + 1 x_("ADB_ESB_34045_34120",_"ESB_ADB_35370_35450")_ + 1 x_("GNY_ESB_34170_34250",_"ESB_ADB_35370_35450")_ + 1 x_("ADA_ESB_34180_34245",_"ESB_ADB_35370_35450")_ + 1 x_("SZF_ESB_34195_34255",_"ESB_ADB_35370_35450")_ + 1 x_("ECN_ESB_34800_34870",_"ESB_ADB_35370_35450")_ + 1 x_("YEI_ESB_34800_34860",_"ESB_ADB_35370_35450")_ + 1 x_("MLX_ESB_34800_34875",_"ESB_ADB_35370_35450")_ + 1 x_("HTY_ESB_34800_34875",_"ESB_ADB_35370_35450")_ + 1 x_("SAW_ESB_34860_34920",_"ESB_ADB_35370_35450")_ + 1 x_("TZX_ESB_35035_35115",_"ESB_ADB_35370_35450")_ + 1 x_("SAW_ESB_35040_35100",_"ESB_ADB_35370_35450")_ + 1 x_("AJI_ESB_35060_35165",_"ESB_ADB_35370_35450")_ + 1 x_("BAL_ESB_35070_35165",_"ESB_ADB_35370_35450")_ + 1 x_("VAN_ESB_35135_35240",_"ESB_ADB_35370_35450")_ + 1 x_("AYT_ESB_35200_35265",_"ESB_ADB_35370_35450")_ - 1 x_("ESB_ADB_35370_35450",_"ADB_SAW_35585_35645")_ - 1 x_("ESB_ADB_35370_35450",_"ADB_ESB_35485_35560")_ - 1 x_("ESB_ADB_35370_35450",_"ADB_SAW_36335_36395")_ = 0
mp_c2_AYT_SAW_35370_35435_: 1 x_("ESB_AYT_35100_35165",_"AYT_SAW_35370_35435")_ + 1 x_("SAW_AYT_35265_35330",_"AYT_SAW_35370_35435")_ - 1 x_("AYT_SAW_35370_35435",_"SAW_ESB_36480_36540")_ - 1 x_("AYT_SAW_35370_35435",_"SAW_ADB_35490_35550")_ - 1 x_("AYT_SAW_35370_35435",_"SAW_ESB_36840_36900")_ - 1 x_("AYT_SAW_35370_35435",_"SAW_ADB_36240_36300")_ - 1 x_("AYT_SAW_35370_35435",_"SAW_KYA_35550_35620")_ - 1 x_("AYT_SAW_35370_35435",_"SAW_VAS_36690_36770")_ - 1 x_("AYT_SAW_35370_35435",_"SAW_ESB_36300_36360")_ - 1 x_("AYT_SAW_35370_35435",_"SAW_TZX_36465_36565")_ - 1 x_("AYT_SAW_35370_35435",_"SAW_ASR_35535_35620")_ - 1 x_("AYT_SAW_35370_35435",_"SAW_AYT_36705_36770")_ = 0
mp_c2_SAW_ESB_35400_35460_: 1 x_("VAS_SAW_33925_34005",_"SAW_ESB_35400_35460")_ + 1 x_("AYT_SAW_33930_33995",_"SAW_ESB_35400_35460")_ + 1 x_("ADB_SAW_34145_34205",_"SAW_ESB_35400_35460")_ + 1 x_("ASR_SAW_34215_34305",_"SAW_ESB_35400_35460")_ + 1 x_("ADB_SAW_34895_34955",_"SAW_ESB_35400_35460")_ + 1 x_("ESB_SAW_34920_34980",_"SAW_ESB_35400_35460")_ + 1 x_("ESB_SAW_35160_35220",_"SAW_ESB_35400_35460")_ + 1 x_("TZX_SAW_35160_35265",_"SAW_ESB_35400_35460")_ + 1 x_("ESB_SAW_35280_35340",_"SAW_ESB_35400_35460")_ - 1 x_("SAW_ESB_35400_35460",_"ESB_TZX_36360_36440")_ - 1 x_("SAW_ESB_35400_35460",_"ESB_ADA_35520_35580")_ - 1 x_("SAW_ESB_35400_35460",_"ESB_ADB_36810_36890")_ - 1 x_("SAW_ESB_35400_35460",_"ESB_SZF_35540_35600")_ - 1 x_("SAW_ESB_35400_35460",_"ESB_HTY_35750_35830")_ - 1 x_("SAW_ESB_35400_35460",_"ESB_MQM_36650_36745")_ - 1 x_("SAW_ESB_35400_35460",_"ESB_ECN_35745_35815")_ - 1 x_("SAW_ESB_35400_35460",_"ESB_BAL_36385_36475")_ - 1 x_("SAW_ESB_35400_35460",_"ESB_AJI_36370_36465")_ - 1 x_("SAW_ESB_35400_35460",_"ESB_ECN_36660_36730")_ - 1 x_("SAW_ESB_35400_35460",_"ESB_SAW_36720_36780")_ - 1 x_("SAW_ESB_35400_35460",_"ESB_SAW_36360_36420")_ - 1 x_("SAW_ESB_35400_35460",_"ESB_YEI_35755_35815")_ - 1 x_("SAW_ESB_35400_35460",_"ESB_MLX_35740_35815")_ - 1 x_("SAW_ESB_35400_35460",_"ESB_VAN_36445_36540")_ - 1 x_("SAW_ESB_35400_35460",_"ESB_ERC_36690_36770")_ - 1 x_("SAW_ESB_35400_35460",_"ESB_GNY_35500_35575")_ - 1 x_("SAW_ESB_35400_35460",_"ESB_SAW_36600_36660")_ = 0
mp_c2_ECN_HTY_35400_35465_: 1 x_("ESB_ECN_34305_34375",_"ECN_HTY_35400_35465")_ + 1 x_("ESB_ECN_35220_35290",_"ECN_HTY_35400_35465")_ - 1 x_("ECN_HTY_35400_35465",_"HTY_ECN_35505_35570")_ - 1 x_("ECN_HTY_35400_35465",_"HTY_ESB_36240_36315")_ = 0
mp_c2_ADB_ESB_35485_35560_: 1 x_("SAW_ADB_34050_34110",_"ADB_ESB_35485_35560")_ + 1 x_("SAW_ADB_34800_34860",_"ADB_ESB_35485_35560")_ + 1 x_("ESB_ADB_35370_35450",_"ADB_ESB_35485_35560")_ - 1 x_("ADB_ESB_35485_35560",_"ESB_SZF_36980_37040")_ - 1 x_("ADB_ESB_35485_35560",_"ESB_TZX_36360_36440")_ - 1 x_("ADB_ESB_35485_35560",_"ESB_ADB_36810_36890")_ - 1 x_("ADB_ESB_35485_35560",_"ESB_HTY_35750_35830")_ - 1 x_("ADB_ESB_35485_35560",_"ESB_MQM_36650_36745")_ - 1 x_("ADB_ESB_35485_35560",_"ESB_ECN_35745_35815")_ - 1 x_("ADB_ESB_35485_35560",_"ESB_BAL_36385_36475")_ - 1 x_("ADB_ESB_35485_35560",_"ESB_GNY_36940_37015")_ - 1 x_("ADB_ESB_35485_35560",_"ESB_ADA_36960_37020")_ - 1 x_("ADB_ESB_35485_35560",_"ESB_AJI_36370_36465")_ - 1 x_("ADB_ESB_35485_35560",_"ESB_ECN_36660_36730")_ - 1 x_("ADB_ESB_35485_35560",_"ESB_SAW_36720_36780")_ - 1 x_("ADB_ESB_35485_35560",_"ESB_SAW_36360_36420")_ - 1 x_("ADB_ESB_35485_35560",_"ESB_YEI_35755_35815")_ - 1 x_("ADB_ESB_35485_35560",_"ESB_MLX_35740_35815")_ - 1 x_("ADB_ESB_35485_35560",_"ESB_VAN_36445_36540")_ - 1 x_("ADB_ESB_35485_35560",_"ESB_ERC_36690_36770")_ - 1 x_("ADB_ESB_35485_35560",_"ESB_SAW_36600_36660")_ = 0
mp_c2_SAW_ADB_35490_35550_: 1 x_("ADB_SAW_34145_34205",_"SAW_ADB_35490_35550")_ + 1 x_("ASR_SAW_34215_34305",_"SAW_ADB_35490_35550")_ + 1 x_("ADB_SAW_34895_34955",_"SAW_ADB_35490_35550")_ + 1 x_("ESB_SAW_34920_34980",_"SAW_ADB_35490_35550")_ + 1 x_("ESB_SAW_35160_35220",_"SAW_ADB_35490_35550")_ + 1 x_("TZX_SAW_35160_35265",_"SAW_ADB_35490_35550")_ + 1 x_("NAJ_SAW_35235_35390",_"SAW_ADB_35490_35550")_ + 1 x_("ESB_SAW_35280_35340",_"SAW_ADB_35490_35550")_ + 1 x_("AYT_SAW_35370_35435",_"SAW_ADB_35490_35550")_ - 1 x_("SAW_ADB_35490_35550",_"ADB_SAW_35585_35645")_ - 1 x_("SAW_ADB_35490_35550",_"ADB_ESB_36925_37000")_ - 1 x_("SAW_ADB_35490_35550",_"ADB_SAW_36335_36395")_ = 0
mp_c2_ESB_GNY_35500_35575_: 1 x_("ADB_ESB_34045_34120",_"ESB_GNY_35500_35575")_ + 1 x_("GNY_ESB_34170_34250",_"ESB_GNY_35500_35575")_ + 1 x_("ADA_ESB_34180_34245",_"ESB_GNY_35500_35575")_ + 1 x_("SZF_ESB_34195_34255",_"ESB_GNY_35500_35575")_ + 1 x_("ECN_ESB_34800_34870",_"ESB_GNY_35500_35575")_ + 1 x_("YEI_ESB_34800_34860",_"ESB_GNY_35500_35575")_ + 1 x_("MLX_ESB_34800_34875",_"ESB_GNY_35500_35575")_ + 1 x_("HTY_ESB_34800_34875",_"ESB_GNY_35500_35575")_ + 1 x_("SAW_ESB_34860_34920",_"ESB_GNY_35500_35575")_ + 1 x_("TZX_ESB_35035_35115",_"ESB_GNY_35500_35575")_ + 1 x_("SAW_ESB_35040_35100",_"ESB_GNY_35500_35575")_ + 1 x_("AJI_ESB_35060_35165",_"ESB_GNY_35500_35575")_ + 1 x_("BAL_ESB_35070_35165",_"ESB_GNY_35500_35575")_ + 1 x_("VAN_ESB_35135_35240",_"ESB_GNY_35500_35575")_ + 1 x_("AYT_ESB_35200_35265",_"ESB_GNY_35500_35575")_ + 1 x_("MQM_ESB_35340_35435",_"ESB_GNY_35500_35575")_ + 1 x_("ERC_ESB_35365_35445",_"ESB_GNY_35500_35575")_ + 1 x_("SAW_ESB_35400_35460",_"ESB_GNY_35500_35575")_ - 1 x_("ESB_GNY_35500_35575",_"GNY_ESB_35610_35690")_ = 0
mp_c2_HTY_ECN_35505_35570_: 1 x_("ESB_HTY_34310_34390",_"HTY_ECN_35505_35570")_ + 1 x_("ECN_HTY_35400_35465",_"HTY_ECN_35505_35570")_ - 1 x_("HTY_ECN_35505_35570",_"ECN_ESB_35615_35685")_ - 1 x_("HTY_ECN_35505_35570",_"ECN_HTY_36840_36905")_ - 1 x_("HTY_ECN_35505_35570",_"ECN_ESB_36240_36310")_ = 0
mp_c2_ESB_ADA_35520_35580_: 1 x_("ADB_ESB_34045_34120",_"ESB_ADA_35520_35580")_ + 1 x_("GNY_ESB_34170_34250",_"ESB_ADA_35520_35580")_ + 1 x_("ADA_ESB_34180_34245",_"ESB_ADA_35520_35580")_ + 1 x_("SZF_ESB_34195_34255",_"ESB_ADA_35520_35580")_ + 1 x_("ECN_ESB_34800_34870",_"ESB_ADA_35520_35580")_ + 1 x_("YEI_ESB_34800_34860",_"ESB_ADA_35520_35580")_ + 1 x_("MLX_ESB_34800_34875",_"ESB_ADA_35520_35580")_ + 1 x_("HTY_ESB_34800_34875",_"ESB_ADA_35520_35580")_ + 1 x_("SAW_ESB_34860_34920",_"ESB_ADA_35520_35580")_ + 1 x_("TZX_ESB_35035_35115",_"ESB_ADA_35520_35580")_ + 1 x_("SAW_ESB_35040_35100",_"ESB_ADA_35520_35580")_ + 1 x_("AJI_ESB_35060_35165",_"ESB_ADA_35520_35580")_ + 1 x_("BAL_ESB_35070_35165",_"ESB_ADA_35520_35580")_ + 1 x_("VAN_ESB_35135_35240",_"ESB_ADA_35520_35580")_ + 1 x_("AYT_ESB_35200_35265",_"ESB_ADA_35520_35580")_ + 1 x_("MQM_ESB_35340_35435",_"ESB_ADA_35520_35580")_ + 1 x_("ERC_ESB_35365_35445",_"ESB_ADA_35520_35580")_ + 1 x_("SAW_ESB_35400_35460",_"ESB_ADA_35520_35580")_ - 1 x_("ESB_ADA_35520_35580",_"ADA_ESB_35620_35685")_ = 0
mp_c2_SAW_ASR_35535_35620_: 1 x_("ADB_SAW_34145_34205",_"SAW_ASR_35535_35620")_ + 1 x_("ASR_SAW_34215_34305",_"SAW_ASR_35535_35620")_ + 1 x_("ADB_SAW_34895_34955",_"SAW_ASR_35535_35620")_ + 1 x_("ESB_SAW_34920_34980",_"SAW_ASR_35535_35620")_ + 1 x_("ESB_SAW_35160_35220",_"SAW_ASR_35535_35620")_ + 1 x_("TZX_SAW_35160_35265",_"SAW_ASR_35535_35620")_ + 1 x_("NAJ_SAW_35235_35390",_"SAW_ASR_35535_35620")_ + 1 x_("ESB_SAW_35280_35340",_"SAW_ASR_35535_35620")_ + 1 x_("AYT_SAW_35370_35435",_"SAW_ASR_35535_35620")_ - 1 x_("SAW_ASR_35535_35620",_"ASR_SAW_35655_35745")_ = 0
mp_c2_ESB_SZF_35540_35600_: 1 x_("ADB_ESB_34045_34120",_"ESB_SZF_35540_35600")_ + 1 x_("GNY_ESB_34170_34250",_"ESB_SZF_35540_35600")_ + 1 x_("ADA_ESB_34180_34245",_"ESB_SZF_35540_35600")_ + 1 x_("SZF_ESB_34195_34255",_"ESB_SZF_35540_35600")_ + 1 x_("ECN_ESB_34800_34870",_"ESB_SZF_35540_35600")_ + 1 x_("YEI_ESB_34800_34860",_"ESB_SZF_35540_35600")_ + 1 x_("MLX_ESB_34800_34875",_"ESB_SZF_35540_35600")_ + 1 x_("HTY_ESB_34800_34875",_"ESB_SZF_35540_35600")_ + 1 x_("SAW_ESB_34860_34920",_"ESB_SZF_35540_35600")_ + 1 x_("TZX_ESB_35035_35115",_"ESB_SZF_35540_35600")_ + 1 x_("SAW_ESB_35040_35100",_"ESB_SZF_35540_35600")_ + 1 x_("AJI_ESB_35060_35165",_"ESB_SZF_35540_35600")_ + 1 x_("BAL_ESB_35070_35165",_"ESB_SZF_35540_35600")_ + 1 x_("VAN_ESB_35135_35240",_"ESB_SZF_35540_35600")_ + 1 x_("AYT_ESB_35200_35265",_"ESB_SZF_35540_35600")_ + 1 x_("MQM_ESB_35340_35435",_"ESB_SZF_35540_35600")_ + 1 x_("ERC_ESB_35365_35445",_"ESB_SZF_35540_35600")_ + 1 x_("SAW_ESB_35400_35460",_"ESB_SZF_35540_35600")_ - 1 x_("ESB_SZF_35540_35600",_"SZF_ESB_35635_35695")_ = 0
mp_c2_SAW_KYA_35550_35620_: 1 x_("ADB_SAW_34145_34205",_"SAW_KYA_35550_35620")_ + 1 x_("ASR_SAW_34215_34305",_"SAW_KYA_35550_35620")_ + 1 x_("ADB_SAW_34895_34955",_"SAW_KYA_35550_35620")_ + 1 x_("ESB_SAW_34920_34980",_"SAW_KYA_35550_35620")_ + 1 x_("ESB_SAW_35160_35220",_"SAW_KYA_35550_35620")_ + 1 x_("TZX_SAW_35160_35265",_"SAW_KYA_35550_35620")_ + 1 x_("NAJ_SAW_35235_35390",_"SAW_KYA_35550_35620")_ + 1 x_("ESB_SAW_35280_35340",_"SAW_KYA_35550_35620")_ + 1 x_("AYT_SAW_35370_35435",_"SAW_KYA_35550_35620")_ - 1 x_("SAW_KYA_35550_35620",_"KYA_SAW_35655_35725")_ = 0
mp_c2_ADB_SAW_35585_35645_: 1 x_("SAW_ADB_34800_34860",_"ADB_SAW_35585_35645")_ + 1 x_("ESB_ADB_35370_35450",_"ADB_SAW_35585_35645")_ + 1 x_("SAW_ADB_35490_35550",_"ADB_SAW_35585_35645")_ - 1 x_("ADB_SAW_35585_35645",_"SAW_ESB_36480_36540")_ - 1 x_("ADB_SAW_35585_35645",_"SAW_ESB_36840_36900")_ - 1 x_("ADB_SAW_35585_35645",_"SAW_ADB_36240_36300")_ - 1 x_("ADB_SAW_35585_35645",_"SAW_KYA_36990_37060")_ - 1 x_("ADB_SAW_35585_35645",_"SAW_ASR_36975_37060")_ - 1 x_("ADB_SAW_35585_35645",_"SAW_VAS_36690_36770")_ - 1 x_("ADB_SAW_35585_35645",_"SAW_ESB_36300_36360")_ - 1 x_("ADB_SAW_35585_35645",_"SAW_TZX_36465_36565")_ - 1 x_("ADB_SAW_35585_35645",_"SAW_AYT_36705_36770")_ - 1 x_("ADB_SAW_35585_35645",_"SAW_ADB_36930_36990")_ = 0
mp_c2_GNY_ESB_35610_35690_: 1 x_("ESB_GNY_35500_35575",_"GNY_ESB_35610_35690")_ - 1 x_("GNY_ESB_35610_35690",_"ESB_SZF_36980_37040")_ - 1 x_("GNY_ESB_35610_35690",_"ESB_TZX_36360_36440")_ - 1 x_("GNY_ESB_35610_35690",_"ESB_ADB_36810_36890")_ - 1 x_("GNY_ESB_35610_35690",_"ESB_HTY_35750_35830")_ - 1 x_("GNY_ESB_35610_35690",_"ESB_MQM_36650_36745")_ - 1 x_("GNY_ESB_35610_35690",_"ESB_ECN_35745_35815")_ - 1 x_("GNY_ESB_35610_35690",_"ESB_BAL_36385_36475")_ - 1 x_("GNY_ESB_35610_35690",_"ESB_GNY_36940_37015")_ - 1 x_("GNY_ESB_35610_35690",_"ESB_ADA_36960_37020")_ - 1 x_("GNY_ESB_35610_35690",_"ESB_AJI_36370_36465")_ - 1 x_("GNY_ESB_35610_35690",_"ESB_ECN_36660_36730")_ - 1 x_("GNY_ESB_35610_35690",_"ESB_SAW_36720_36780")_ - 1 x_("GNY_ESB_35610_35690",_"ESB_SAW_36360_36420")_ - 1 x_("GNY_ESB_35610_35690",_"ESB_YEI_35755_35815")_ - 1 x_("GNY_ESB_35610_35690",_"ESB_MLX_35740_35815")_ - 1 x_("GNY_ESB_35610_35690",_"ESB_VAN_36445_36540")_ - 1 x_("GNY_ESB_35610_35690",_"ESB_ERC_36690_36770")_ - 1 x_("GNY_ESB_35610_35690",_"ESB_SAW_36600_36660")_ = 0
mp_c2_ECN_ESB_35615_35685_: 1 x_("ESB_ECN_34305_34375",_"ECN_ESB_35615_35685")_ + 1 x_("ESB_ECN_35220_35290",_"ECN_ESB_35615_35685")_ + 1 x_("HTY_ECN_35505_35570",_"ECN_ESB_35615_35685")_ - 1 x_("ECN_ESB_35615_35685",_"ESB_SZF_36980_37040")_ - 1 x_("ECN_ESB_35615_35685",_"ESB_TZX_36360_36440")_ - 1 x_("ECN_ESB_35615_35685",_"ESB_ADB_36810_36890")_ - 1 x_("ECN_ESB_35615_35685",_"ESB_HTY_35750_35830")_ - 1 x_("ECN_ESB_35615_35685",_"ESB_MQM_36650_36745")_ - 1 x_("ECN_ESB_35615_35685",_"ESB_ECN_35745_35815")_ - 1 x_("ECN_ESB_35615_35685",_"ESB_BAL_36385_36475")_ - 1 x_("ECN_ESB_35615_35685",_"ESB_GNY_36940_37015")_ - 1 x_("ECN_ESB_35615_35685",_"ESB_ADA_36960_37020")_ - 1 x_("ECN_ESB_35615_35685",_"ESB_AJI_36370_36465")_ - 1 x_("ECN_ESB_35615_35685",_"ESB_ECN_36660_36730")_ - 1 x_("ECN_ESB_35615_35685",_"ESB_SAW_36720_36780")_ - 1 x_("ECN_ESB_35615_35685",_"ESB_SAW_36360_36420")_ - 1 x_("ECN_ESB_35615_35685",_"ESB_YEI_35755_35815")_ - 1 x_("ECN_ESB_35615_35685",_"ESB_MLX_35740_35815")_ - 1 x_("ECN_ESB_35615_35685",_"ESB_VAN_36445_36540")_ - 1 x_("ECN_ESB_35615_35685",_"ESB_ERC_36690_36770")_ - 1 x_("ECN_ESB_35615_35685",_"ESB_SAW_36600_36660")_ = 0
mp_c2_ADA_ESB_35620_35685_: 1 x_("ESB_ADA_35520_35580",_"ADA_ESB_35620_35685")_ - 1 x_("ADA_ESB_35620_35685",_"ESB_SZF_36980_37040")_ - 1 x_("ADA_ESB_35620_35685",_"ESB_TZX_36360_36440")_ - 1 x_("ADA_ESB_35620_35685",_"ESB_ADB_36810_36890")_ - 1 x_("ADA_ESB_35620_35685",_"ESB_HTY_35750_35830")_ - 1 x_("ADA_ESB_35620_35685",_"ESB_MQM_36650_36745")_ - 1 x_("ADA_ESB_35620_35685",_"ESB_ECN_35745_35815")_ - 1 x_("ADA_ESB_35620_35685",_"ESB_BAL_36385_36475")_ - 1 x_("ADA_ESB_35620_35685",_"ESB_GNY_36940_37015")_ - 1 x_("ADA_ESB_35620_35685",_"ESB_ADA_36960_37020")_ - 1 x_("ADA_ESB_35620_35685",_"ESB_AJI_36370_36465")_ - 1 x_("ADA_ESB_35620_35685",_"ESB_ECN_36660_36730")_ - 1 x_("ADA_ESB_35620_35685",_"ESB_SAW_36720_36780")_ - 1 x_("ADA_ESB_35620_35685",_"ESB_SAW_36360_36420")_ - 1 x_("ADA_ESB_35620_35685",_"ESB_YEI_35755_35815")_ - 1 x_("ADA_ESB_35620_35685",_"ESB_MLX_35740_35815")_ - 1 x_("ADA_ESB_35620_35685",_"ESB_VAN_36445_36540")_ - 1 x_("ADA_ESB_35620_35685",_"ESB_ERC_36690_36770")_ - 1 x_("ADA_ESB_35620_35685",_"ESB_SAW_36600_36660")_ = 0
mp_c2_SZF_ESB_35635_35695_: 1 x_("ESB_SZF_35540_35600",_"SZF_ESB_35635_35695")_ - 1 x_("SZF_ESB_35635_35695",_"ESB_SZF_36980_37040")_ - 1 x_("SZF_ESB_35635_35695",_"ESB_TZX_36360_36440")_ - 1 x_("SZF_ESB_35635_35695",_"ESB_ADB_36810_36890")_ - 1 x_("SZF_ESB_35635_35695",_"ESB_HTY_35750_35830")_ - 1 x_("SZF_ESB_35635_35695",_"ESB_MQM_36650_36745")_ - 1 x_("SZF_ESB_35635_35695",_"ESB_ECN_35745_35815")_ - 1 x_("SZF_ESB_35635_35695",_"ESB_BAL_36385_36475")_ - 1 x_("SZF_ESB_35635_35695",_"ESB_GNY_36940_37015")_ - 1 x_("SZF_ESB_35635_35695",_"ESB_ADA_36960_37020")_ - 1 x_("SZF_ESB_35635_35695",_"ESB_AJI_36370_36465")_ - 1 x_("SZF_ESB_35635_35695",_"ESB_ECN_36660_36730")_ - 1 x_("SZF_ESB_35635_35695",_"ESB_SAW_36720_36780")_ - 1 x_("SZF_ESB_35635_35695",_"ESB_SAW_36360_36420")_ - 1 x_("SZF_ESB_35635_35695",_"ESB_YEI_35755_35815")_ - 1 x_("SZF_ESB_35635_35695",_"ESB_MLX_35740_35815")_ - 1 x_("SZF_ESB_35635_35695",_"ESB_VAN_36445_36540")_ - 1 x_("SZF_ESB_35635_35695",_"ESB_ERC_36690_36770")_ - 1 x_("SZF_ESB_35635_35695",_"ESB_SAW_36600_36660")_ = 0
mp_c2_ASR_SAW_35655_35745_: 1 x_("SAW_ASR_35535_35620",_"ASR_SAW_35655_35745")_ - 1 x_("ASR_SAW_35655_35745",_"SAW_ESB_36480_36540")_ - 1 x_("ASR_SAW_35655_35745",_"SAW_ESB_36840_36900")_ - 1 x_("ASR_SAW_35655_35745",_"SAW_ADB_36240_36300")_ - 1 x_("ASR_SAW_35655_35745",_"SAW_KYA_36990_37060")_ - 1 x_("ASR_SAW_35655_35745",_"SAW_ASR_36975_37060")_ - 1 x_("ASR_SAW_35655_35745",_"SAW_VAS_36690_36770")_ - 1 x_("ASR_SAW_35655_35745",_"SAW_ESB_36300_36360")_ - 1 x_("ASR_SAW_35655_35745",_"SAW_TZX_36465_36565")_ - 1 x_("ASR_SAW_35655_35745",_"SAW_AYT_36705_36770")_ - 1 x_("ASR_SAW_35655_35745",_"SAW_ADB_36930_36990")_ = 0
mp_c2_KYA_SAW_35655_35725_: 1 x_("SAW_KYA_35550_35620",_"KYA_SAW_35655_35725")_ - 1 x_("KYA_SAW_35655_35725",_"SAW_ESB_36480_36540")_ - 1 x_("KYA_SAW_35655_35725",_"SAW_ESB_36840_36900")_ - 1 x_("KYA_SAW_35655_35725",_"SAW_ADB_36240_36300")_ - 1 x_("KYA_SAW_35655_35725",_"SAW_KYA_36990_37060")_ - 1 x_("KYA_SAW_35655_35725",_"SAW_ASR_36975_37060")_ - 1 x_("KYA_SAW_35655_35725",_"SAW_VAS_36690_36770")_ - 1 x_("KYA_SAW_35655_35725",_"SAW_ESB_36300_36360")_ - 1 x_("KYA_SAW_35655_35725",_"SAW_TZX_36465_36565")_ - 1 x_("KYA_SAW_35655_35725",_"SAW_AYT_36705_36770")_ - 1 x_("KYA_SAW_35655_35725",_"SAW_ADB_36930_36990")_ = 0
mp_c2_ESB_MLX_35740_35815_: 1 x_("ECN_ESB_34800_34870",_"ESB_MLX_35740_35815")_ + 1 x_("YEI_ESB_34800_34860",_"ESB_MLX_35740_35815")_ + 1 x_("MLX_ESB_34800_34875",_"ESB_MLX_35740_35815")_ + 1 x_("HTY_ESB_34800_34875",_"ESB_MLX_35740_35815")_ + 1 x_("SAW_ESB_34860_34920",_"ESB_MLX_35740_35815")_ + 1 x_("TZX_ESB_35035_35115",_"ESB_MLX_35740_35815")_ + 1 x_("SAW_ESB_35040_35100",_"ESB_MLX_35740_35815")_ + 1 x_("AJI_ESB_35060_35165",_"ESB_MLX_35740_35815")_ + 1 x_("BAL_ESB_35070_35165",_"ESB_MLX_35740_35815")_ + 1 x_("VAN_ESB_35135_35240",_"ESB_MLX_35740_35815")_ + 1 x_("AYT_ESB_35200_35265",_"ESB_MLX_35740_35815")_ + 1 x_("MQM_ESB_35340_35435",_"ESB_MLX_35740_35815")_ + 1 x_("ERC_ESB_35365_35445",_"ESB_MLX_35740_35815")_ + 1 x_("SAW_ESB_35400_35460",_"ESB_MLX_35740_35815")_ + 1 x_("ADB_ESB_35485_35560",_"ESB_MLX_35740_35815")_ + 1 x_("GNY_ESB_35610_35690",_"ESB_MLX_35740_35815")_ + 1 x_("ECN_ESB_35615_35685",_"ESB_MLX_35740_35815")_ + 1 x_("ADA_ESB_35620_35685",_"ESB_MLX_35740_35815")_ + 1 x_("SZF_ESB_35635_35695",_"ESB_MLX_35740_35815")_ - 1 x_("ESB_MLX_35740_35815",_"MLX_ESB_36240_36315")_ = 0
mp_c2_ESB_ECN_35745_35815_: 1 x_("ECN_ESB_34800_34870",_"ESB_ECN_35745_35815")_ + 1 x_("YEI_ESB_34800_34860",_"ESB_ECN_35745_35815")_ + 1 x_("MLX_ESB_34800_34875",_"ESB_ECN_35745_35815")_ + 1 x_("HTY_ESB_34800_34875",_"ESB_ECN_35745_35815")_ + 1 x_("SAW_ESB_34860_34920",_"ESB_ECN_35745_35815")_ + 1 x_("TZX_ESB_35035_35115",_"ESB_ECN_35745_35815")_ + 1 x_("SAW_ESB_35040_35100",_"ESB_ECN_35745_35815")_ + 1 x_("AJI_ESB_35060_35165",_"ESB_ECN_35745_35815")_ + 1 x_("BAL_ESB_35070_35165",_"ESB_ECN_35745_35815")_ + 1 x_("VAN_ESB_35135_35240",_"ESB_ECN_35745_35815")_ + 1 x_("AYT_ESB_35200_35265",_"ESB_ECN_35745_35815")_ + 1 x_("MQM_ESB_35340_35435",_"ESB_ECN_35745_35815")_ + 1 x_("ERC_ESB_35365_35445",_"ESB_ECN_35745_35815")_ + 1 x_("SAW_ESB_35400_35460",_"ESB_ECN_35745_35815")_ + 1 x_("ADB_ESB_35485_35560",_"ESB_ECN_35745_35815")_ + 1 x_("GNY_ESB_35610_35690",_"ESB_ECN_35745_35815")_ + 1 x_("ECN_ESB_35615_35685",_"ESB_ECN_35745_35815")_ + 1 x_("ADA_ESB_35620_35685",_"ESB_ECN_35745_35815")_ + 1 x_("SZF_ESB_35635_35695",_"ESB_ECN_35745_35815")_ - 1 x_("ESB_ECN_35745_35815",_"ECN_ESB_37055_37125")_ - 1 x_("ESB_ECN_35745_35815",_"ECN_HTY_36840_36905")_ - 1 x_("ESB_ECN_35745_35815",_"ECN_ESB_36240_36310")_ = 0
mp_c2_ESB_HTY_35750_35830_: 1 x_("ECN_ESB_34800_34870",_"ESB_HTY_35750_35830")_ + 1 x_("YEI_ESB_34800_34860",_"ESB_HTY_35750_35830")_ + 1 x_("MLX_ESB_34800_34875",_"ESB_HTY_35750_35830")_ + 1 x_("HTY_ESB_34800_34875",_"ESB_HTY_35750_35830")_ + 1 x_("SAW_ESB_34860_34920",_"ESB_HTY_35750_35830")_ + 1 x_("TZX_ESB_35035_35115",_"ESB_HTY_35750_35830")_ + 1 x_("SAW_ESB_35040_35100",_"ESB_HTY_35750_35830")_ + 1 x_("AJI_ESB_35060_35165",_"ESB_HTY_35750_35830")_ + 1 x_("BAL_ESB_35070_35165",_"ESB_HTY_35750_35830")_ + 1 x_("VAN_ESB_35135_35240",_"ESB_HTY_35750_35830")_ + 1 x_("AYT_ESB_35200_35265",_"ESB_HTY_35750_35830")_ + 1 x_("MQM_ESB_35340_35435",_"ESB_HTY_35750_35830")_ + 1 x_("ERC_ESB_35365_35445",_"ESB_HTY_35750_35830")_ + 1 x_("SAW_ESB_35400_35460",_"ESB_HTY_35750_35830")_ + 1 x_("ADB_ESB_35485_35560",_"ESB_HTY_35750_35830")_ + 1 x_("GNY_ESB_35610_35690",_"ESB_HTY_35750_35830")_ + 1 x_("ECN_ESB_35615_35685",_"ESB_HTY_35750_35830")_ + 1 x_("ADA_ESB_35620_35685",_"ESB_HTY_35750_35830")_ + 1 x_("SZF_ESB_35635_35695",_"ESB_HTY_35750_35830")_ - 1 x_("ESB_HTY_35750_35830",_"HTY_ESB_36240_36315")_ - 1 x_("ESB_HTY_35750_35830",_"HTY_ECN_36945_37010")_ = 0
mp_c2_ESB_YEI_35755_35815_: 1 x_("ECN_ESB_34800_34870",_"ESB_YEI_35755_35815")_ + 1 x_("YEI_ESB_34800_34860",_"ESB_YEI_35755_35815")_ + 1 x_("MLX_ESB_34800_34875",_"ESB_YEI_35755_35815")_ + 1 x_("HTY_ESB_34800_34875",_"ESB_YEI_35755_35815")_ + 1 x_("SAW_ESB_34860_34920",_"ESB_YEI_35755_35815")_ + 1 x_("TZX_ESB_35035_35115",_"ESB_YEI_35755_35815")_ + 1 x_("SAW_ESB_35040_35100",_"ESB_YEI_35755_35815")_ + 1 x_("AJI_ESB_35060_35165",_"ESB_YEI_35755_35815")_ + 1 x_("BAL_ESB_35070_35165",_"ESB_YEI_35755_35815")_ + 1 x_("VAN_ESB_35135_35240",_"ESB_YEI_35755_35815")_ + 1 x_("AYT_ESB_35200_35265",_"ESB_YEI_35755_35815")_ + 1 x_("MQM_ESB_35340_35435",_"ESB_YEI_35755_35815")_ + 1 x_("ERC_ESB_35365_35445",_"ESB_YEI_35755_35815")_ + 1 x_("SAW_ESB_35400_35460",_"ESB_YEI_35755_35815")_ + 1 x_("ADB_ESB_35485_35560",_"ESB_YEI_35755_35815")_ + 1 x_("GNY_ESB_35610_35690",_"ESB_YEI_35755_35815")_ + 1 x_("ECN_ESB_35615_35685",_"ESB_YEI_35755_35815")_ + 1 x_("ADA_ESB_35620_35685",_"ESB_YEI_35755_35815")_ + 1 x_("SZF_ESB_35635_35695",_"ESB_YEI_35755_35815")_ - 1 x_("ESB_YEI_35755_35815",_"YEI_ESB_36240_36300")_ = 0
mp_c2_SAW_ADB_36240_36300_: 1 x_("ADB_SAW_34895_34955",_"SAW_ADB_36240_36300")_ + 1 x_("ESB_SAW_34920_34980",_"SAW_ADB_36240_36300")_ + 1 x_("ESB_SAW_35160_35220",_"SAW_ADB_36240_36300")_ + 1 x_("TZX_SAW_35160_35265",_"SAW_ADB_36240_36300")_ + 1 x_("NAJ_SAW_35235_35390",_"SAW_ADB_36240_36300")_ + 1 x_("ESB_SAW_35280_35340",_"SAW_ADB_36240_36300")_ + 1 x_("AYT_SAW_35370_35435",_"SAW_ADB_36240_36300")_ + 1 x_("ADB_SAW_35585_35645",_"SAW_ADB_36240_36300")_ + 1 x_("ASR_SAW_35655_35745",_"SAW_ADB_36240_36300")_ + 1 x_("KYA_SAW_35655_35725",_"SAW_ADB_36240_36300")_ - 1 x_("SAW_ADB_36240_36300",_"ADB_ESB_36925_37000")_ - 1 x_("SAW_ADB_36240_36300",_"ADB_SAW_37025_37085")_ - 1 x_("SAW_ADB_36240_36300",_"ADB_SAW_36335_36395")_ = 0
mp_c2_ECN_ESB_36240_36310_: 1 x_("ESB_ECN_35220_35290",_"ECN_ESB_36240_36310")_ + 1 x_("HTY_ECN_35505_35570",_"ECN_ESB_36240_36310")_ + 1 x_("ESB_ECN_35745_35815",_"ECN_ESB_36240_36310")_ - 1 x_("ECN_ESB_36240_36310",_"ESB_SZF_36980_37040")_ - 1 x_("ECN_ESB_36240_36310",_"ESB_TZX_36360_36440")_ - 1 x_("ECN_ESB_36240_36310",_"ESB_ADB_36810_36890")_ - 1 x_("ECN_ESB_36240_36310",_"ESB_MQM_36650_36745")_ - 1 x_("ECN_ESB_36240_36310",_"ESB_BAL_36385_36475")_ - 1 x_("ECN_ESB_36240_36310",_"ESB_GNY_36940_37015")_ - 1 x_("ECN_ESB_36240_36310",_"ESB_ECN_37185_37255")_ - 1 x_("ECN_ESB_36240_36310",_"ESB_YEI_37195_37255")_ - 1 x_("ECN_ESB_36240_36310",_"ESB_ADA_36960_37020")_ - 1 x_("ECN_ESB_36240_36310",_"ESB_HTY_37190_37270")_ - 1 x_("ECN_ESB_36240_36310",_"ESB_AJI_36370_36465")_ - 1 x_("ECN_ESB_36240_36310",_"ESB_ECN_36660_36730")_ - 1 x_("ECN_ESB_36240_36310",_"ESB_SAW_36720_36780")_ - 1 x_("ECN_ESB_36240_36310",_"ESB_SAW_36360_36420")_ - 1 x_("ECN_ESB_36240_36310",_"ESB_MLX_37180_37255")_ - 1 x_("ECN_ESB_36240_36310",_"ESB_VAN_36445_36540")_ - 1 x_("ECN_ESB_36240_36310",_"ESB_ERC_36690_36770")_ - 1 x_("ECN_ESB_36240_36310",_"ESB_SAW_36600_36660")_ = 0
mp_c2_YEI_ESB_36240_36300_: 1 x_("ESB_YEI_35755_35815",_"YEI_ESB_36240_36300")_ - 1 x_("YEI_ESB_36240_36300",_"ESB_SZF_36980_37040")_ - 1 x_("YEI_ESB_36240_36300",_"ESB_TZX_36360_36440")_ - 1 x_("YEI_ESB_36240_36300",_"ESB_ADB_36810_36890")_ - 1 x_("YEI_ESB_36240_36300",_"ESB_MQM_36650_36745")_ - 1 x_("YEI_ESB_36240_36300",_"ESB_BAL_36385_36475")_ - 1 x_("YEI_ESB_36240_36300",_"ESB_GNY_36940_37015")_ - 1 x_("YEI_ESB_36240_36300",_"ESB_ECN_37185_37255")_ - 1 x_("YEI_ESB_36240_36300",_"ESB_YEI_37195_37255")_ - 1 x_("YEI_ESB_36240_36300",_"ESB_ADA_36960_37020")_ - 1 x_("YEI_ESB_36240_36300",_"ESB_HTY_37190_37270")_ - 1 x_("YEI_ESB_36240_36300",_"ESB_AJI_36370_36465")_ - 1 x_("YEI_ESB_36240_36300",_"ESB_ECN_36660_36730")_ - 1 x_("YEI_ESB_36240_36300",_"ESB_SAW_36720_36780")_ - 1 x_("YEI_ESB_36240_36300",_"ESB_SAW_36360_36420")_ - 1 x_("YEI_ESB_36240_36300",_"ESB_MLX_37180_37255")_ - 1 x_("YEI_ESB_36240_36300",_"ESB_VAN_36445_36540")_ - 1 x_("YEI_ESB_36240_36300",_"ESB_ERC_36690_36770")_ - 1 x_("YEI_ESB_36240_36300",_"ESB_SAW_36600_36660")_ = 0
mp_c2_MLX_ESB_36240_36315_: 1 x_("ESB_MLX_35740_35815",_"MLX_ESB_36240_36315")_ - 1 x_("MLX_ESB_36240_36315",_"ESB_SZF_36980_37040")_ - 1 x_("MLX_ESB_36240_36315",_"ESB_TZX_36360_36440")_ - 1 x_("MLX_ESB_36240_36315",_"ESB_ADB_36810_36890")_ - 1 x_("MLX_ESB_36240_36315",_"ESB_MQM_36650_36745")_ - 1 x_("MLX_ESB_36240_36315",_"ESB_BAL_36385_36475")_ - 1 x_("MLX_ESB_36240_36315",_"ESB_GNY_36940_37015")_ - 1 x_("MLX_ESB_36240_36315",_"ESB_ECN_37185_37255")_ - 1 x_("MLX_ESB_36240_36315",_"ESB_YEI_37195_37255")_ - 1 x_("MLX_ESB_36240_36315",_"ESB_ADA_36960_37020")_ - 1 x_("MLX_ESB_36240_36315",_"ESB_HTY_37190_37270")_ - 1 x_("MLX_ESB_36240_36315",_"ESB_AJI_36370_36465")_ - 1 x_("MLX_ESB_36240_36315",_"ESB_ECN_36660_36730")_ - 1 x_("MLX_ESB_36240_36315",_"ESB_SAW_36720_36780")_ - 1 x_("MLX_ESB_36240_36315",_"ESB_SAW_36360_36420")_ - 1 x_("MLX_ESB_36240_36315",_"ESB_MLX_37180_37255")_ - 1 x_("MLX_ESB_36240_36315",_"ESB_VAN_36445_36540")_ - 1 x_("MLX_ESB_36240_36315",_"ESB_ERC_36690_36770")_ - 1 x_("MLX_ESB_36240_36315",_"ESB_SAW_36600_36660")_ = 0
mp_c2_HTY_ESB_36240_36315_: 1 x_("ECN_HTY_35400_35465",_"HTY_ESB_36240_36315")_ + 1 x_("ESB_HTY_35750_35830",_"HTY_ESB_36240_36315")_ - 1 x_("HTY_ESB_36240_36315",_"ESB_SZF_36980_37040")_ - 1 x_("HTY_ESB_36240_36315",_"ESB_TZX_36360_36440")_ - 1 x_("HTY_ESB_36240_36315",_"ESB_ADB_36810_36890")_ - 1 x_("HTY_ESB_36240_36315",_"ESB_MQM_36650_36745")_ - 1 x_("HTY_ESB_36240_36315",_"ESB_BAL_36385_36475")_ - 1 x_("HTY_ESB_36240_36315",_"ESB_GNY_36940_37015")_ - 1 x_("HTY_ESB_36240_36315",_"ESB_ECN_37185_37255")_ - 1 x_("HTY_ESB_36240_36315",_"ESB_YEI_37195_37255")_ - 1 x_("HTY_ESB_36240_36315",_"ESB_ADA_36960_37020")_ - 1 x_("HTY_ESB_36240_36315",_"ESB_HTY_37190_37270")_ - 1 x_("HTY_ESB_36240_36315",_"ESB_AJI_36370_36465")_ - 1 x_("HTY_ESB_36240_36315",_"ESB_ECN_36660_36730")_ - 1 x_("HTY_ESB_36240_36315",_"ESB_SAW_36720_36780")_ - 1 x_("HTY_ESB_36240_36315",_"ESB_SAW_36360_36420")_ - 1 x_("HTY_ESB_36240_36315",_"ESB_MLX_37180_37255")_ - 1 x_("HTY_ESB_36240_36315",_"ESB_VAN_36445_36540")_ - 1 x_("HTY_ESB_36240_36315",_"ESB_ERC_36690_36770")_ - 1 x_("HTY_ESB_36240_36315",_"ESB_SAW_36600_36660")_ = 0
mp_c2_SAW_ESB_36300_36360_: 1 x_("ADB_SAW_34895_34955",_"SAW_ESB_36300_36360")_ + 1 x_("ESB_SAW_34920_34980",_"SAW_ESB_36300_36360")_ + 1 x_("ESB_SAW_35160_35220",_"SAW_ESB_36300_36360")_ + 1 x_("TZX_SAW_35160_35265",_"SAW_ESB_36300_36360")_ + 1 x_("NAJ_SAW_35235_35390",_"SAW_ESB_36300_36360")_ + 1 x_("ESB_SAW_35280_35340",_"SAW_ESB_36300_36360")_ + 1 x_("AYT_SAW_35370_35435",_"SAW_ESB_36300_36360")_ + 1 x_("ADB_SAW_35585_35645",_"SAW_ESB_36300_36360")_ + 1 x_("ASR_SAW_35655_35745",_"SAW_ESB_36300_36360")_ + 1 x_("KYA_SAW_35655_35725",_"SAW_ESB_36300_36360")_ - 1 x_("SAW_ESB_36300_36360",_"ESB_SZF_36980_37040")_ - 1 x_("SAW_ESB_36300_36360",_"ESB_ADB_36810_36890")_ - 1 x_("SAW_ESB_36300_36360",_"ESB_MQM_36650_36745")_ - 1 x_("SAW_ESB_36300_36360",_"ESB_SAW_37800_37860")_ - 1 x_("SAW_ESB_36300_36360",_"ESB_GNY_36940_37015")_ - 1 x_("SAW_ESB_36300_36360",_"ESB_ECN_37185_37255")_ - 1 x_("SAW_ESB_36300_36360",_"ESB_YEI_37195_37255")_ - 1 x_("SAW_ESB_36300_36360",_"ESB_ADA_36960_37020")_ - 1 x_("SAW_ESB_36300_36360",_"ESB_HTY_37190_37270")_ - 1 x_("SAW_ESB_36300_36360",_"ESB_ECN_36660_36730")_ - 1 x_("SAW_ESB_36300_36360",_"ESB_SAW_36720_36780")_ - 1 x_("SAW_ESB_36300_36360",_"ESB_MLX_37180_37255")_ - 1 x_("SAW_ESB_36300_36360",_"ESB_VAN_36445_36540")_ - 1 x_("SAW_ESB_36300_36360",_"ESB_TZX_37800_37880")_ - 1 x_("SAW_ESB_36300_36360",_"ESB_ERC_36690_36770")_ - 1 x_("SAW_ESB_36300_36360",_"ESB_SAW_36600_36660")_ = 0
mp_c2_ADB_SAW_36335_36395_: 1 x_("ESB_ADB_35370_35450",_"ADB_SAW_36335_36395")_ + 1 x_("SAW_ADB_35490_35550",_"ADB_SAW_36335_36395")_ + 1 x_("SAW_ADB_36240_36300",_"ADB_SAW_36335_36395")_ - 1 x_("ADB_SAW_36335_36395",_"SAW_ESB_36480_36540")_ - 1 x_("ADB_SAW_36335_36395",_"SAW_ESB_36840_36900")_ - 1 x_("ADB_SAW_36335_36395",_"SAW_ESB_37740_37800")_ - 1 x_("ADB_SAW_36335_36395",_"SAW_KYA_36990_37060")_ - 1 x_("ADB_SAW_36335_36395",_"SAW_ASR_36975_37060")_ - 1 x_("ADB_SAW_36335_36395",_"SAW_VAS_36690_36770")_ - 1 x_("ADB_SAW_36335_36395",_"SAW_TZX_36465_36565")_ - 1 x_("ADB_SAW_36335_36395",_"SAW_ADB_37680_37740")_ - 1 x_("ADB_SAW_36335_36395",_"SAW_AYT_36705_36770")_ - 1 x_("ADB_SAW_36335_36395",_"SAW_ADB_36930_36990")_ = 0
mp_c2_ESB_SAW_36360_36420_: 1 x_("SAW_ESB_34860_34920",_"ESB_SAW_36360_36420")_ + 1 x_("TZX_ESB_35035_35115",_"ESB_SAW_36360_36420")_ + 1 x_("SAW_ESB_35040_35100",_"ESB_SAW_36360_36420")_ + 1 x_("AJI_ESB_35060_35165",_"ESB_SAW_36360_36420")_ + 1 x_("BAL_ESB_35070_35165",_"ESB_SAW_36360_36420")_ + 1 x_("VAN_ESB_35135_35240",_"ESB_SAW_36360_36420")_ + 1 x_("AYT_ESB_35200_35265",_"ESB_SAW_36360_36420")_ + 1 x_("MQM_ESB_35340_35435",_"ESB_SAW_36360_36420")_ + 1 x_("ERC_ESB_35365_35445",_"ESB_SAW_36360_36420")_ + 1 x_("SAW_ESB_35400_35460",_"ESB_SAW_36360_36420")_ + 1 x_("ADB_ESB_35485_35560",_"ESB_SAW_36360_36420")_ + 1 x_("GNY_ESB_35610_35690",_"ESB_SAW_36360_36420")_ + 1 x_("ECN_ESB_35615_35685",_"ESB_SAW_36360_36420")_ + 1 x_("ADA_ESB_35620_35685",_"ESB_SAW_36360_36420")_ + 1 x_("SZF_ESB_35635_35695",_"ESB_SAW_36360_36420")_ + 1 x_("ECN_ESB_36240_36310",_"ESB_SAW_36360_36420")_ + 1 x_("YEI_ESB_36240_36300",_"ESB_SAW_36360_36420")_ + 1 x_("MLX_ESB_36240_36315",_"ESB_SAW_36360_36420")_ + 1 x_("HTY_ESB_36240_36315",_"ESB_SAW_36360_36420")_ - 1 x_("ESB_SAW_36360_36420",_"SAW_ESB_36480_36540")_ - 1 x_("ESB_SAW_36360_36420",_"SAW_ESB_36840_36900")_ - 1 x_("ESB_SAW_36360_36420",_"SAW_ESB_37740_37800")_ - 1 x_("ESB_SAW_36360_36420",_"SAW_KYA_36990_37060")_ - 1 x_("ESB_SAW_36360_36420",_"SAW_ASR_36975_37060")_ - 1 x_("ESB_SAW_36360_36420",_"SAW_VAS_36690_36770")_ - 1 x_("ESB_SAW_36360_36420",_"SAW_TZX_36465_36565")_ - 1 x_("ESB_SAW_36360_36420",_"SAW_ADB_37680_37740")_ - 1 x_("ESB_SAW_36360_36420",_"SAW_AYT_36705_36770")_ - 1 x_("ESB_SAW_36360_36420",_"SAW_ADB_36930_36990")_ = 0
mp_c2_ESB_TZX_36360_36440_: 1 x_("SAW_ESB_34860_34920",_"ESB_TZX_36360_36440")_ + 1 x_("TZX_ESB_35035_35115",_"ESB_TZX_36360_36440")_ + 1 x_("SAW_ESB_35040_35100",_"ESB_TZX_36360_36440")_ + 1 x_("AJI_ESB_35060_35165",_"ESB_TZX_36360_36440")_ + 1 x_("BAL_ESB_35070_35165",_"ESB_TZX_36360_36440")_ + 1 x_("VAN_ESB_35135_35240",_"ESB_TZX_36360_36440")_ + 1 x_("AYT_ESB_35200_35265",_"ESB_TZX_36360_36440")_ + 1 x_("MQM_ESB_35340_35435",_"ESB_TZX_36360_36440")_ + 1 x_("ERC_ESB_35365_35445",_"ESB_TZX_36360_36440")_ + 1 x_("SAW_ESB_35400_35460",_"ESB_TZX_36360_36440")_ + 1 x_("ADB_ESB_35485_35560",_"ESB_TZX_36360_36440")_ + 1 x_("GNY_ESB_35610_35690",_"ESB_TZX_36360_36440")_ + 1 x_("ECN_ESB_35615_35685",_"ESB_TZX_36360_36440")_ + 1 x_("ADA_ESB_35620_35685",_"ESB_TZX_36360_36440")_ + 1 x_("SZF_ESB_35635_35695",_"ESB_TZX_36360_36440")_ + 1 x_("ECN_ESB_36240_36310",_"ESB_TZX_36360_36440")_ + 1 x_("YEI_ESB_36240_36300",_"ESB_TZX_36360_36440")_ + 1 x_("MLX_ESB_36240_36315",_"ESB_TZX_36360_36440")_ + 1 x_("HTY_ESB_36240_36315",_"ESB_TZX_36360_36440")_ - 1 x_("ESB_TZX_36360_36440",_"TZX_ESB_36475_36555")_ - 1 x_("ESB_TZX_36360_36440",_"TZX_SAW_36600_36705")_ = 0
mp_c2_ESB_AJI_36370_36465_: 1 x_("TZX_ESB_35035_35115",_"ESB_AJI_36370_36465")_ + 1 x_("SAW_ESB_35040_35100",_"ESB_AJI_36370_36465")_ + 1 x_("AJI_ESB_35060_35165",_"ESB_AJI_36370_36465")_ + 1 x_("BAL_ESB_35070_35165",_"ESB_AJI_36370_36465")_ + 1 x_("VAN_ESB_35135_35240",_"ESB_AJI_36370_36465")_ + 1 x_("AYT_ESB_35200_35265",_"ESB_AJI_36370_36465")_ + 1 x_("MQM_ESB_35340_35435",_"ESB_AJI_36370_36465")_ + 1 x_("ERC_ESB_35365_35445",_"ESB_AJI_36370_36465")_ + 1 x_("SAW_ESB_35400_35460",_"ESB_AJI_36370_36465")_ + 1 x_("ADB_ESB_35485_35560",_"ESB_AJI_36370_36465")_ + 1 x_("GNY_ESB_35610_35690",_"ESB_AJI_36370_36465")_ + 1 x_("ECN_ESB_35615_35685",_"ESB_AJI_36370_36465")_ + 1 x_("ADA_ESB_35620_35685",_"ESB_AJI_36370_36465")_ + 1 x_("SZF_ESB_35635_35695",_"ESB_AJI_36370_36465")_ + 1 x_("ECN_ESB_36240_36310",_"ESB_AJI_36370_36465")_ + 1 x_("YEI_ESB_36240_36300",_"ESB_AJI_36370_36465")_ + 1 x_("MLX_ESB_36240_36315",_"ESB_AJI_36370_36465")_ + 1 x_("HTY_ESB_36240_36315",_"ESB_AJI_36370_36465")_ - 1 x_("ESB_AJI_36370_36465",_"AJI_ESB_36500_36605")_ = 0
mp_c2_ESB_BAL_36385_36475_: 1 x_("TZX_ESB_35035_35115",_"ESB_BAL_36385_36475")_ + 1 x_("SAW_ESB_35040_35100",_"ESB_BAL_36385_36475")_ + 1 x_("AJI_ESB_35060_35165",_"ESB_BAL_36385_36475")_ + 1 x_("BAL_ESB_35070_35165",_"ESB_BAL_36385_36475")_ + 1 x_("VAN_ESB_35135_35240",_"ESB_BAL_36385_36475")_ + 1 x_("AYT_ESB_35200_35265",_"ESB_BAL_36385_36475")_ + 1 x_("MQM_ESB_35340_35435",_"ESB_BAL_36385_36475")_ + 1 x_("ERC_ESB_35365_35445",_"ESB_BAL_36385_36475")_ + 1 x_("SAW_ESB_35400_35460",_"ESB_BAL_36385_36475")_ + 1 x_("ADB_ESB_35485_35560",_"ESB_BAL_36385_36475")_ + 1 x_("GNY_ESB_35610_35690",_"ESB_BAL_36385_36475")_ + 1 x_("ECN_ESB_35615_35685",_"ESB_BAL_36385_36475")_ + 1 x_("ADA_ESB_35620_35685",_"ESB_BAL_36385_36475")_ + 1 x_("SZF_ESB_35635_35695",_"ESB_BAL_36385_36475")_ + 1 x_("ECN_ESB_36240_36310",_"ESB_BAL_36385_36475")_ + 1 x_("YEI_ESB_36240_36300",_"ESB_BAL_36385_36475")_ + 1 x_("MLX_ESB_36240_36315",_"ESB_BAL_36385_36475")_ + 1 x_("HTY_ESB_36240_36315",_"ESB_BAL_36385_36475")_ - 1 x_("ESB_BAL_36385_36475",_"BAL_ESB_36510_36605")_ = 0
mp_c2_ESB_VAN_36445_36540_: 1 x_("TZX_ESB_35035_35115",_"ESB_VAN_36445_36540")_ + 1 x_("SAW_ESB_35040_35100",_"ESB_VAN_36445_36540")_ + 1 x_("AJI_ESB_35060_35165",_"ESB_VAN_36445_36540")_ + 1 x_("BAL_ESB_35070_35165",_"ESB_VAN_36445_36540")_ + 1 x_("VAN_ESB_35135_35240",_"ESB_VAN_36445_36540")_ + 1 x_("AYT_ESB_35200_35265",_"ESB_VAN_36445_36540")_ + 1 x_("MQM_ESB_35340_35435",_"ESB_VAN_36445_36540")_ + 1 x_("ERC_ESB_35365_35445",_"ESB_VAN_36445_36540")_ + 1 x_("SAW_ESB_35400_35460",_"ESB_VAN_36445_36540")_ + 1 x_("ADB_ESB_35485_35560",_"ESB_VAN_36445_36540")_ + 1 x_("GNY_ESB_35610_35690",_"ESB_VAN_36445_36540")_ + 1 x_("ECN_ESB_35615_35685",_"ESB_VAN_36445_36540")_ + 1 x_("ADA_ESB_35620_35685",_"ESB_VAN_36445_36540")_ + 1 x_("SZF_ESB_35635_35695",_"ESB_VAN_36445_36540")_ + 1 x_("ECN_ESB_36240_36310",_"ESB_VAN_36445_36540")_ + 1 x_("YEI_ESB_36240_36300",_"ESB_VAN_36445_36540")_ + 1 x_("MLX_ESB_36240_36315",_"ESB_VAN_36445_36540")_ + 1 x_("HTY_ESB_36240_36315",_"ESB_VAN_36445_36540")_ + 1 x_("SAW_ESB_36300_36360",_"ESB_VAN_36445_36540")_ - 1 x_("ESB_VAN_36445_36540",_"VAN_ESB_36575_36680")_ = 0
mp_c2_SAW_TZX_36465_36565_: 1 x_("ESB_SAW_35160_35220",_"SAW_TZX_36465_36565")_ + 1 x_("TZX_SAW_35160_35265",_"SAW_TZX_36465_36565")_ + 1 x_("NAJ_SAW_35235_35390",_"SAW_TZX_36465_36565")_ + 1 x_("ESB_SAW_35280_35340",_"SAW_TZX_36465_36565")_ + 1 x_("AYT_SAW_35370_35435",_"SAW_TZX_36465_36565")_ + 1 x_("ADB_SAW_35585_35645",_"SAW_TZX_36465_36565")_ + 1 x_("ASR_SAW_35655_35745",_"SAW_TZX_36465_36565")_ + 1 x_("KYA_SAW_35655_35725",_"SAW_TZX_36465_36565")_ + 1 x_("ADB_SAW_36335_36395",_"SAW_TZX_36465_36565")_ + 1 x_("ESB_SAW_36360_36420",_"SAW_TZX_36465_36565")_ - 1 x_("SAW_TZX_36465_36565",_"TZX_SAW_36600_36705")_ - 1 x_("SAW_TZX_36465_36565",_"TZX_ESB_37915_37995")_ = 0
mp_c2_TZX_ESB_36475_36555_: 1 x_("SAW_TZX_35025_35125",_"TZX_ESB_36475_36555")_ + 1 x_("ESB_TZX_36360_36440",_"TZX_ESB_36475_36555")_ - 1 x_("TZX_ESB_36475_36555",_"ESB_SZF_36980_37040")_ - 1 x_("TZX_ESB_36475_36555",_"ESB_ADB_36810_36890")_ - 1 x_("TZX_ESB_36475_36555",_"ESB_MQM_36650_36745")_ - 1 x_("TZX_ESB_36475_36555",_"ESB_SAW_37800_37860")_ - 1 x_("TZX_ESB_36475_36555",_"ESB_GNY_36940_37015")_ - 1 x_("TZX_ESB_36475_36555",_"ESB_ECN_37185_37255")_ - 1 x_("TZX_ESB_36475_36555",_"ESB_YEI_37195_37255")_ - 1 x_("TZX_ESB_36475_36555",_"ESB_ADA_36960_37020")_ - 1 x_("TZX_ESB_36475_36555",_"ESB_HTY_37190_37270")_ - 1 x_("TZX_ESB_36475_36555",_"ESB_ECN_36660_36730")_ - 1 x_("TZX_ESB_36475_36555",_"ESB_AJI_37810_37905")_ - 1 x_("TZX_ESB_36475_36555",_"ESB_SAW_36720_36780")_ - 1 x_("TZX_ESB_36475_36555",_"ESB_VAN_37885_37980")_ - 1 x_("TZX_ESB_36475_36555",_"ESB_AYT_37980_38045")_ - 1 x_("TZX_ESB_36475_36555",_"ESB_MLX_37180_37255")_ - 1 x_("TZX_ESB_36475_36555",_"ESB_BAL_37825_37915")_ - 1 x_("TZX_ESB_36475_36555",_"ESB_TZX_37800_37880")_ - 1 x_("TZX_ESB_36475_36555",_"ESB_ERC_36690_36770")_ - 1 x_("TZX_ESB_36475_36555",_"ESB_SAW_36600_36660")_ = 0
mp_c2_SAW_ESB_36480_36540_: 1 x_("ESB_SAW_35160_35220",_"SAW_ESB_36480_36540")_ + 1 x_("TZX_SAW_35160_35265",_"SAW_ESB_36480_36540")_ + 1 x_("NAJ_SAW_35235_35390",_"SAW_ESB_36480_36540")_ + 1 x_("ESB_SAW_35280_35340",_"SAW_ESB_36480_36540")_ + 1 x_("AYT_SAW_35370_35435",_"SAW_ESB_36480_36540")_ + 1 x_("ADB_SAW_35585_35645",_"SAW_ESB_36480_36540")_ + 1 x_("ASR_SAW_35655_35745",_"SAW_ESB_36480_36540")_ + 1 x_("KYA_SAW_35655_35725",_"SAW_ESB_36480_36540")_ + 1 x_("ADB_SAW_36335_36395",_"SAW_ESB_36480_36540")_ + 1 x_("ESB_SAW_36360_36420",_"SAW_ESB_36480_36540")_ - 1 x_("SAW_ESB_36480_36540",_"ESB_SZF_36980_37040")_ - 1 x_("SAW_ESB_36480_36540",_"ESB_ADB_36810_36890")_ - 1 x_("SAW_ESB_36480_36540",_"ESB_MQM_36650_36745")_ - 1 x_("SAW_ESB_36480_36540",_"ESB_SAW_37800_37860")_ - 1 x_("SAW_ESB_36480_36540",_"ESB_GNY_36940_37015")_ - 1 x_("SAW_ESB_36480_36540",_"ESB_ECN_37185_37255")_ - 1 x_("SAW_ESB_36480_36540",_"ESB_YEI_37195_37255")_ - 1 x_("SAW_ESB_36480_36540",_"ESB_ADA_36960_37020")_ - 1 x_("SAW_ESB_36480_36540",_"ESB_HTY_37190_37270")_ - 1 x_("SAW_ESB_36480_36540",_"ESB_ECN_36660_36730")_ - 1 x_("SAW_ESB_36480_36540",_"ESB_AJI_37810_37905")_ - 1 x_("SAW_ESB_36480_36540",_"ESB_SAW_36720_36780")_ - 1 x_("SAW_ESB_36480_36540",_"ESB_VAN_37885_37980")_ - 1 x_("SAW_ESB_36480_36540",_"ESB_AYT_37980_38045")_ - 1 x_("SAW_ESB_36480_36540",_"ESB_MLX_37180_37255")_ - 1 x_("SAW_ESB_36480_36540",_"ESB_BAL_37825_37915")_ - 1 x_("SAW_ESB_36480_36540",_"ESB_TZX_37800_37880")_ - 1 x_("SAW_ESB_36480_36540",_"ESB_ERC_36690_36770")_ - 1 x_("SAW_ESB_36480_36540",_"ESB_SAW_36600_36660")_ = 0
mp_c2_AJI_ESB_36500_36605_: 1 x_("ESB_AJI_36370_36465",_"AJI_ESB_36500_36605")_ - 1 x_("AJI_ESB_36500_36605",_"ESB_SZF_36980_37040")_ - 1 x_("AJI_ESB_36500_36605",_"ESB_ADB_36810_36890")_ - 1 x_("AJI_ESB_36500_36605",_"ESB_MQM_36650_36745")_ - 1 x_("AJI_ESB_36500_36605",_"ESB_SAW_37800_37860")_ - 1 x_("AJI_ESB_36500_36605",_"ESB_GNY_36940_37015")_ - 1 x_("AJI_ESB_36500_36605",_"ESB_SAW_38040_38100")_ - 1 x_("AJI_ESB_36500_36605",_"ESB_ECN_37185_37255")_ - 1 x_("AJI_ESB_36500_36605",_"ESB_YEI_37195_37255")_ - 1 x_("AJI_ESB_36500_36605",_"ESB_ADA_36960_37020")_ - 1 x_("AJI_ESB_36500_36605",_"ESB_HTY_37190_37270")_ - 1 x_("AJI_ESB_36500_36605",_"ESB_ECN_36660_36730")_ - 1 x_("AJI_ESB_36500_36605",_"ESB_AJI_37810_37905")_ - 1 x_("AJI_ESB_36500_36605",_"ESB_SAW_36720_36780")_ - 1 x_("AJI_ESB_36500_36605",_"ESB_VAN_37885_37980")_ - 1 x_("AJI_ESB_36500_36605",_"ESB_AYT_37980_38045")_ - 1 x_("AJI_ESB_36500_36605",_"ESB_MLX_37180_37255")_ - 1 x_("AJI_ESB_36500_36605",_"ESB_BAL_37825_37915")_ - 1 x_("AJI_ESB_36500_36605",_"ESB_TZX_37800_37880")_ - 1 x_("AJI_ESB_36500_36605",_"ESB_ERC_36690_36770")_ = 0
mp_c2_BAL_ESB_36510_36605_: 1 x_("ESB_BAL_36385_36475",_"BAL_ESB_36510_36605")_ - 1 x_("BAL_ESB_36510_36605",_"ESB_SZF_36980_37040")_ - 1 x_("BAL_ESB_36510_36605",_"ESB_ADB_36810_36890")_ - 1 x_("BAL_ESB_36510_36605",_"ESB_MQM_36650_36745")_ - 1 x_("BAL_ESB_36510_36605",_"ESB_SAW_37800_37860")_ - 1 x_("BAL_ESB_36510_36605",_"ESB_GNY_36940_37015")_ - 1 x_("BAL_ESB_36510_36605",_"ESB_SAW_38040_38100")_ - 1 x_("BAL_ESB_36510_36605",_"ESB_ECN_37185_37255")_ - 1 x_("BAL_ESB_36510_36605",_"ESB_YEI_37195_37255")_ - 1 x_("BAL_ESB_36510_36605",_"ESB_ADA_36960_37020")_ - 1 x_("BAL_ESB_36510_36605",_"ESB_HTY_37190_37270")_ - 1 x_("BAL_ESB_36510_36605",_"ESB_ECN_36660_36730")_ - 1 x_("BAL_ESB_36510_36605",_"ESB_AJI_37810_37905")_ - 1 x_("BAL_ESB_36510_36605",_"ESB_SAW_36720_36780")_ - 1 x_("BAL_ESB_36510_36605",_"ESB_VAN_37885_37980")_ - 1 x_("BAL_ESB_36510_36605",_"ESB_AYT_37980_38045")_ - 1 x_("BAL_ESB_36510_36605",_"ESB_MLX_37180_37255")_ - 1 x_("BAL_ESB_36510_36605",_"ESB_BAL_37825_37915")_ - 1 x_("BAL_ESB_36510_36605",_"ESB_TZX_37800_37880")_ - 1 x_("BAL_ESB_36510_36605",_"ESB_ERC_36690_36770")_ = 0
mp_c2_VAN_ESB_36575_36680_: 1 x_("ESB_VAN_36445_36540",_"VAN_ESB_36575_36680")_ - 1 x_("VAN_ESB_36575_36680",_"ESB_SZF_36980_37040")_ - 1 x_("VAN_ESB_36575_36680",_"ESB_ADB_36810_36890")_ - 1 x_("VAN_ESB_36575_36680",_"ESB_SAW_37800_37860")_ - 1 x_("VAN_ESB_36575_36680",_"ESB_ECN_38100_38170")_ - 1 x_("VAN_ESB_36575_36680",_"ESB_GNY_36940_37015")_ - 1 x_("VAN_ESB_36575_36680",_"ESB_SAW_38040_38100")_ - 1 x_("VAN_ESB_36575_36680",_"ESB_ECN_37185_37255")_ - 1 x_("VAN_ESB_36575_36680",_"ESB_YEI_37195_37255")_ - 1 x_("VAN_ESB_36575_36680",_"ESB_ADA_36960_37020")_ - 1 x_("VAN_ESB_36575_36680",_"ESB_HTY_37190_37270")_ - 1 x_("VAN_ESB_36575_36680",_"ESB_AJI_37810_37905")_ - 1 x_("VAN_ESB_36575_36680",_"ESB_SAW_36720_36780")_ - 1 x_("VAN_ESB_36575_36680",_"ESB_VAN_37885_37980")_ - 1 x_("VAN_ESB_36575_36680",_"ESB_MQM_38090_38185")_ - 1 x_("VAN_ESB_36575_36680",_"ESB_AYT_37980_38045")_ - 1 x_("VAN_ESB_36575_36680",_"ESB_MLX_37180_37255")_ - 1 x_("VAN_ESB_36575_36680",_"ESB_BAL_37825_37915")_ - 1 x_("VAN_ESB_36575_36680",_"ESB_TZX_37800_37880")_ = 0
mp_c2_ESB_SAW_36600_36660_: 1 x_("AJI_ESB_35060_35165",_"ESB_SAW_36600_36660")_ + 1 x_("BAL_ESB_35070_35165",_"ESB_SAW_36600_36660")_ + 1 x_("VAN_ESB_35135_35240",_"ESB_SAW_36600_36660")_ + 1 x_("AYT_ESB_35200_35265",_"ESB_SAW_36600_36660")_ + 1 x_("MQM_ESB_35340_35435",_"ESB_SAW_36600_36660")_ + 1 x_("ERC_ESB_35365_35445",_"ESB_SAW_36600_36660")_ + 1 x_("SAW_ESB_35400_35460",_"ESB_SAW_36600_36660")_ + 1 x_("ADB_ESB_35485_35560",_"ESB_SAW_36600_36660")_ + 1 x_("GNY_ESB_35610_35690",_"ESB_SAW_36600_36660")_ + 1 x_("ECN_ESB_35615_35685",_"ESB_SAW_36600_36660")_ + 1 x_("ADA_ESB_35620_35685",_"ESB_SAW_36600_36660")_ + 1 x_("SZF_ESB_35635_35695",_"ESB_SAW_36600_36660")_ + 1 x_("ECN_ESB_36240_36310",_"ESB_SAW_36600_36660")_ + 1 x_("YEI_ESB_36240_36300",_"ESB_SAW_36600_36660")_ + 1 x_("MLX_ESB_36240_36315",_"ESB_SAW_36600_36660")_ + 1 x_("HTY_ESB_36240_36315",_"ESB_SAW_36600_36660")_ + 1 x_("SAW_ESB_36300_36360",_"ESB_SAW_36600_36660")_ + 1 x_("TZX_ESB_36475_36555",_"ESB_SAW_36600_36660")_ + 1 x_("SAW_ESB_36480_36540",_"ESB_SAW_36600_36660")_ - 1 x_("ESB_SAW_36600_36660",_"SAW_ESB_36840_36900")_ - 1 x_("ESB_SAW_36600_36660",_"SAW_ESB_37740_37800")_ - 1 x_("ESB_SAW_36600_36660",_"SAW_KYA_36990_37060")_ - 1 x_("ESB_SAW_36600_36660",_"SAW_ASR_36975_37060")_ - 1 x_("ESB_SAW_36600_36660",_"SAW_ESB_37920_37980")_ - 1 x_("ESB_SAW_36600_36660",_"SAW_ADB_37680_37740")_ - 1 x_("ESB_SAW_36600_36660",_"SAW_AYT_36705_36770")_ - 1 x_("ESB_SAW_36600_36660",_"SAW_TZX_37905_38005")_ - 1 x_("ESB_SAW_36600_36660",_"SAW_ADB_36930_36990")_ = 0
mp_c2_TZX_SAW_36600_36705_: 1 x_("ESB_TZX_36360_36440",_"TZX_SAW_36600_36705")_ + 1 x_("SAW_TZX_36465_36565",_"TZX_SAW_36600_36705")_ - 1 x_("TZX_SAW_36600_36705",_"SAW_VAS_38130_38210")_ - 1 x_("TZX_SAW_36600_36705",_"SAW_AYT_38145_38210")_ - 1 x_("TZX_SAW_36600_36705",_"SAW_ESB_36840_36900")_ - 1 x_("TZX_SAW_36600_36705",_"SAW_ESB_37740_37800")_ - 1 x_("TZX_SAW_36600_36705",_"SAW_KYA_36990_37060")_ - 1 x_("TZX_SAW_36600_36705",_"SAW_ASR_36975_37060")_ - 1 x_("TZX_SAW_36600_36705",_"SAW_ESB_37920_37980")_ - 1 x_("TZX_SAW_36600_36705",_"SAW_ADB_37680_37740")_ - 1 x_("TZX_SAW_36600_36705",_"SAW_TZX_37905_38005")_ - 1 x_("TZX_SAW_36600_36705",_"SAW_ADB_36930_36990")_ = 0
mp_c2_ESB_MQM_36650_36745_: 1 x_("VAN_ESB_35135_35240",_"ESB_MQM_36650_36745")_ + 1 x_("AYT_ESB_35200_35265",_"ESB_MQM_36650_36745")_ + 1 x_("MQM_ESB_35340_35435",_"ESB_MQM_36650_36745")_ + 1 x_("ERC_ESB_35365_35445",_"ESB_MQM_36650_36745")_ + 1 x_("SAW_ESB_35400_35460",_"ESB_MQM_36650_36745")_ + 1 x_("ADB_ESB_35485_35560",_"ESB_MQM_36650_36745")_ + 1 x_("GNY_ESB_35610_35690",_"ESB_MQM_36650_36745")_ + 1 x_("ECN_ESB_35615_35685",_"ESB_MQM_36650_36745")_ + 1 x_("ADA_ESB_35620_35685",_"ESB_MQM_36650_36745")_ + 1 x_("SZF_ESB_35635_35695",_"ESB_MQM_36650_36745")_ + 1 x_("ECN_ESB_36240_36310",_"ESB_MQM_36650_36745")_ + 1 x_("YEI_ESB_36240_36300",_"ESB_MQM_36650_36745")_ + 1 x_("MLX_ESB_36240_36315",_"ESB_MQM_36650_36745")_ + 1 x_("HTY_ESB_36240_36315",_"ESB_MQM_36650_36745")_ + 1 x_("SAW_ESB_36300_36360",_"ESB_MQM_36650_36745")_ + 1 x_("TZX_ESB_36475_36555",_"ESB_MQM_36650_36745")_ + 1 x_("SAW_ESB_36480_36540",_"ESB_MQM_36650_36745")_ + 1 x_("AJI_ESB_36500_36605",_"ESB_MQM_36650_36745")_ + 1 x_("BAL_ESB_36510_36605",_"ESB_MQM_36650_36745")_ - 1 x_("ESB_MQM_36650_36745",_"MQM_ESB_36780_36875")_ = 0
mp_c2_ESB_ECN_36660_36730_: 1 x_("VAN_ESB_35135_35240",_"ESB_ECN_36660_36730")_ + 1 x_("AYT_ESB_35200_35265",_"ESB_ECN_36660_36730")_ + 1 x_("MQM_ESB_35340_35435",_"ESB_ECN_36660_36730")_ + 1 x_("ERC_ESB_35365_35445",_"ESB_ECN_36660_36730")_ + 1 x_("SAW_ESB_35400_35460",_"ESB_ECN_36660_36730")_ + 1 x_("ADB_ESB_35485_35560",_"ESB_ECN_36660_36730")_ + 1 x_("GNY_ESB_35610_35690",_"ESB_ECN_36660_36730")_ + 1 x_("ECN_ESB_35615_35685",_"ESB_ECN_36660_36730")_ + 1 x_("ADA_ESB_35620_35685",_"ESB_ECN_36660_36730")_ + 1 x_("SZF_ESB_35635_35695",_"ESB_ECN_36660_36730")_ + 1 x_("ECN_ESB_36240_36310",_"ESB_ECN_36660_36730")_ + 1 x_("YEI_ESB_36240_36300",_"ESB_ECN_36660_36730")_ + 1 x_("MLX_ESB_36240_36315",_"ESB_ECN_36660_36730")_ + 1 x_("HTY_ESB_36240_36315",_"ESB_ECN_36660_36730")_ + 1 x_("SAW_ESB_36300_36360",_"ESB_ECN_36660_36730")_ + 1 x_("TZX_ESB_36475_36555",_"ESB_ECN_36660_36730")_ + 1 x_("SAW_ESB_36480_36540",_"ESB_ECN_36660_36730")_ + 1 x_("AJI_ESB_36500_36605",_"ESB_ECN_36660_36730")_ + 1 x_("BAL_ESB_36510_36605",_"ESB_ECN_36660_36730")_ - 1 x_("ESB_ECN_36660_36730",_"ECN_ESB_37055_37125")_ - 1 x_("ESB_ECN_36660_36730",_"ECN_HTY_36840_36905")_ - 1 x_("ESB_ECN_36660_36730",_"ECN_ESB_37680_37750")_ = 0
mp_c2_ESB_ERC_36690_36770_: 1 x_("AYT_ESB_35200_35265",_"ESB_ERC_36690_36770")_ + 1 x_("MQM_ESB_35340_35435",_"ESB_ERC_36690_36770")_ + 1 x_("ERC_ESB_35365_35445",_"ESB_ERC_36690_36770")_ + 1 x_("SAW_ESB_35400_35460",_"ESB_ERC_36690_36770")_ + 1 x_("ADB_ESB_35485_35560",_"ESB_ERC_36690_36770")_ + 1 x_("GNY_ESB_35610_35690",_"ESB_ERC_36690_36770")_ + 1 x_("ECN_ESB_35615_35685",_"ESB_ERC_36690_36770")_ + 1 x_("ADA_ESB_35620_35685",_"ESB_ERC_36690_36770")_ + 1 x_("SZF_ESB_35635_35695",_"ESB_ERC_36690_36770")_ + 1 x_("ECN_ESB_36240_36310",_"ESB_ERC_36690_36770")_ + 1 x_("YEI_ESB_36240_36300",_"ESB_ERC_36690_36770")_ + 1 x_("MLX_ESB_36240_36315",_"ESB_ERC_36690_36770")_ + 1 x_("HTY_ESB_36240_36315",_"ESB_ERC_36690_36770")_ + 1 x_("SAW_ESB_36300_36360",_"ESB_ERC_36690_36770")_ + 1 x_("TZX_ESB_36475_36555",_"ESB_ERC_36690_36770")_ + 1 x_("SAW_ESB_36480_36540",_"ESB_ERC_36690_36770")_ + 1 x_("AJI_ESB_36500_36605",_"ESB_ERC_36690_36770")_ + 1 x_("BAL_ESB_36510_36605",_"ESB_ERC_36690_36770")_ - 1 x_("ESB_ERC_36690_36770",_"ERC_ESB_36805_36885")_ = 0
mp_c2_SAW_VAS_36690_36770_: 1 x_("TZX_SAW_35160_35265",_"SAW_VAS_36690_36770")_ + 1 x_("NAJ_SAW_35235_35390",_"SAW_VAS_36690_36770")_ + 1 x_("ESB_SAW_35280_35340",_"SAW_VAS_36690_36770")_ + 1 x_("AYT_SAW_35370_35435",_"SAW_VAS_36690_36770")_ + 1 x_("ADB_SAW_35585_35645",_"SAW_VAS_36690_36770")_ + 1 x_("ASR_SAW_35655_35745",_"SAW_VAS_36690_36770")_ + 1 x_("KYA_SAW_35655_35725",_"SAW_VAS_36690_36770")_ + 1 x_("ADB_SAW_36335_36395",_"SAW_VAS_36690_36770")_ + 1 x_("ESB_SAW_36360_36420",_"SAW_VAS_36690_36770")_ - 1 x_("SAW_VAS_36690_36770",_"VAS_SAW_36805_36885")_ = 0
mp_c2_SAW_AYT_36705_36770_: 1 x_("TZX_SAW_35160_35265",_"SAW_AYT_36705_36770")_ + 1 x_("NAJ_SAW_35235_35390",_"SAW_AYT_36705_36770")_ + 1 x_("ESB_SAW_35280_35340",_"SAW_AYT_36705_36770")_ + 1 x_("AYT_SAW_35370_35435",_"SAW_AYT_36705_36770")_ + 1 x_("ADB_SAW_35585_35645",_"SAW_AYT_36705_36770")_ + 1 x_("ASR_SAW_35655_35745",_"SAW_AYT_36705_36770")_ + 1 x_("KYA_SAW_35655_35725",_"SAW_AYT_36705_36770")_ + 1 x_("ADB_SAW_36335_36395",_"SAW_AYT_36705_36770")_ + 1 x_("ESB_SAW_36360_36420",_"SAW_AYT_36705_36770")_ + 1 x_("ESB_SAW_36600_36660",_"SAW_AYT_36705_36770")_ - 1 x_("SAW_AYT_36705_36770",_"AYT_ESB_38080_38145")_ - 1 x_("SAW_AYT_36705_36770",_"AYT_SAW_36810_36875")_ = 0
mp_c2_ESB_SAW_36720_36780_: 1 x_("MQM_ESB_35340_35435",_"ESB_SAW_36720_36780")_ + 1 x_("ERC_ESB_35365_35445",_"ESB_SAW_36720_36780")_ + 1 x_("SAW_ESB_35400_35460",_"ESB_SAW_36720_36780")_ + 1 x_("ADB_ESB_35485_35560",_"ESB_SAW_36720_36780")_ + 1 x_("GNY_ESB_35610_35690",_"ESB_SAW_36720_36780")_ + 1 x_("ECN_ESB_35615_35685",_"ESB_SAW_36720_36780")_ + 1 x_("ADA_ESB_35620_35685",_"ESB_SAW_36720_36780")_ + 1 x_("SZF_ESB_35635_35695",_"ESB_SAW_36720_36780")_ + 1 x_("ECN_ESB_36240_36310",_"ESB_SAW_36720_36780")_ + 1 x_("YEI_ESB_36240_36300",_"ESB_SAW_36720_36780")_ + 1 x_("MLX_ESB_36240_36315",_"ESB_SAW_36720_36780")_ + 1 x_("HTY_ESB_36240_36315",_"ESB_SAW_36720_36780")_ + 1 x_("SAW_ESB_36300_36360",_"ESB_SAW_36720_36780")_ + 1 x_("TZX_ESB_36475_36555",_"ESB_SAW_36720_36780")_ + 1 x_("SAW_ESB_36480_36540",_"ESB_SAW_36720_36780")_ + 1 x_("AJI_ESB_36500_36605",_"ESB_SAW_36720_36780")_ + 1 x_("BAL_ESB_36510_36605",_"ESB_SAW_36720_36780")_ + 1 x_("VAN_ESB_36575_36680",_"ESB_SAW_36720_36780")_ - 1 x_("ESB_SAW_36720_36780",_"SAW_VAS_38130_38210")_ - 1 x_("ESB_SAW_36720_36780",_"SAW_AYT_38145_38210")_ - 1 x_("ESB_SAW_36720_36780",_"SAW_ESB_36840_36900")_ - 1 x_("ESB_SAW_36720_36780",_"SAW_ESB_37740_37800")_ - 1 x_("ESB_SAW_36720_36780",_"SAW_KYA_36990_37060")_ - 1 x_("ESB_SAW_36720_36780",_"SAW_ASR_36975_37060")_ - 1 x_("ESB_SAW_36720_36780",_"SAW_ESB_37920_37980")_ - 1 x_("ESB_SAW_36720_36780",_"SAW_ADB_37680_37740")_ - 1 x_("ESB_SAW_36720_36780",_"SAW_TZX_37905_38005")_ - 1 x_("ESB_SAW_36720_36780",_"SAW_ADB_36930_36990")_ = 0
mp_c2_MQM_ESB_36780_36875_: 1 x_("ESB_MQM_36650_36745",_"MQM_ESB_36780_36875")_ - 1 x_("MQM_ESB_36780_36875",_"ESB_SZF_36980_37040")_ - 1 x_("MQM_ESB_36780_36875",_"ESB_ERC_38130_38210")_ - 1 x_("MQM_ESB_36780_36875",_"ESB_SAW_37800_37860")_ - 1 x_("MQM_ESB_36780_36875",_"ESB_ECN_38100_38170")_ - 1 x_("MQM_ESB_36780_36875",_"ESB_GNY_36940_37015")_ - 1 x_("MQM_ESB_36780_36875",_"ESB_SAW_38040_38100")_ - 1 x_("MQM_ESB_36780_36875",_"ESB_ECN_37185_37255")_ - 1 x_("MQM_ESB_36780_36875",_"ESB_YEI_37195_37255")_ - 1 x_("MQM_ESB_36780_36875",_"ESB_ADA_36960_37020")_ - 1 x_("MQM_ESB_36780_36875",_"ESB_HTY_37190_37270")_ - 1 x_("MQM_ESB_36780_36875",_"ESB_AJI_37810_37905")_ - 1 x_("MQM_ESB_36780_36875",_"ESB_SAW_38160_38220")_ - 1 x_("MQM_ESB_36780_36875",_"ESB_VAN_37885_37980")_ - 1 x_("MQM_ESB_36780_36875",_"ESB_MQM_38090_38185")_ - 1 x_("MQM_ESB_36780_36875",_"ESB_AYT_37980_38045")_ - 1 x_("MQM_ESB_36780_36875",_"ESB_MLX_37180_37255")_ - 1 x_("MQM_ESB_36780_36875",_"ESB_ADB_38250_38330")_ - 1 x_("MQM_ESB_36780_36875",_"ESB_BAL_37825_37915")_ - 1 x_("MQM_ESB_36780_36875",_"ESB_TZX_37800_37880")_ = 0
mp_c2_ERC_ESB_36805_36885_: 1 x_("ESB_ERC_36690_36770",_"ERC_ESB_36805_36885")_ - 1 x_("ERC_ESB_36805_36885",_"ESB_SZF_36980_37040")_ - 1 x_("ERC_ESB_36805_36885",_"ESB_ERC_38130_38210")_ - 1 x_("ERC_ESB_36805_36885",_"ESB_SAW_37800_37860")_ - 1 x_("ERC_ESB_36805_36885",_"ESB_ECN_38100_38170")_ - 1 x_("ERC_ESB_36805_36885",_"ESB_GNY_36940_37015")_ - 1 x_("ERC_ESB_36805_36885",_"ESB_SAW_38040_38100")_ - 1 x_("ERC_ESB_36805_36885",_"ESB_ECN_37185_37255")_ - 1 x_("ERC_ESB_36805_36885",_"ESB_YEI_37195_37255")_ - 1 x_("ERC_ESB_36805_36885",_"ESB_ADA_36960_37020")_ - 1 x_("ERC_ESB_36805_36885",_"ESB_HTY_37190_37270")_ - 1 x_("ERC_ESB_36805_36885",_"ESB_AJI_37810_37905")_ - 1 x_("ERC_ESB_36805_36885",_"ESB_SAW_38160_38220")_ - 1 x_("ERC_ESB_36805_36885",_"ESB_VAN_37885_37980")_ - 1 x_("ERC_ESB_36805_36885",_"ESB_MQM_38090_38185")_ - 1 x_("ERC_ESB_36805_36885",_"ESB_AYT_37980_38045")_ - 1 x_("ERC_ESB_36805_36885",_"ESB_MLX_37180_37255")_ - 1 x_("ERC_ESB_36805_36885",_"ESB_ADB_38250_38330")_ - 1 x_("ERC_ESB_36805_36885",_"ESB_BAL_37825_37915")_ - 1 x_("ERC_ESB_36805_36885",_"ESB_TZX_37800_37880")_ = 0
mp_c2_VAS_SAW_36805_36885_: 1 x_("SAW_VAS_36690_36770",_"VAS_SAW_36805_36885")_ - 1 x_("VAS_SAW_36805_36885",_"SAW_VAS_38130_38210")_ - 1 x_("VAS_SAW_36805_36885",_"SAW_AYT_38145_38210")_ - 1 x_("VAS_SAW_36805_36885",_"SAW_ESB_38280_38340")_ - 1 x_("VAS_SAW_36805_36885",_"SAW_ESB_37740_37800")_ - 1 x_("VAS_SAW_36805_36885",_"SAW_KYA_36990_37060")_ - 1 x_("VAS_SAW_36805_36885",_"SAW_ASR_36975_37060")_ - 1 x_("VAS_SAW_36805_36885",_"SAW_ESB_37920_37980")_ - 1 x_("VAS_SAW_36805_36885",_"SAW_ADB_37680_37740")_ - 1 x_("VAS_SAW_36805_36885",_"SAW_TZX_37905_38005")_ - 1 x_("VAS_SAW_36805_36885",_"SAW_ADB_36930_36990")_ = 0
mp_c2_ESB_ADB_36810_36890_: 1 x_("MQM_ESB_35340_35435",_"ESB_ADB_36810_36890")_ + 1 x_("ERC_ESB_35365_35445",_"ESB_ADB_36810_36890")_ + 1 x_("SAW_ESB_35400_35460",_"ESB_ADB_36810_36890")_ + 1 x_("ADB_ESB_35485_35560",_"ESB_ADB_36810_36890")_ + 1 x_("GNY_ESB_35610_35690",_"ESB_ADB_36810_36890")_ + 1 x_("ECN_ESB_35615_35685",_"ESB_ADB_36810_36890")_ + 1 x_("ADA_ESB_35620_35685",_"ESB_ADB_36810_36890")_ + 1 x_("SZF_ESB_35635_35695",_"ESB_ADB_36810_36890")_ + 1 x_("ECN_ESB_36240_36310",_"ESB_ADB_36810_36890")_ + 1 x_("YEI_ESB_36240_36300",_"ESB_ADB_36810_36890")_ + 1 x_("MLX_ESB_36240_36315",_"ESB_ADB_36810_36890")_ + 1 x_("HTY_ESB_36240_36315",_"ESB_ADB_36810_36890")_ + 1 x_("SAW_ESB_36300_36360",_"ESB_ADB_36810_36890")_ + 1 x_("TZX_ESB_36475_36555",_"ESB_ADB_36810_36890")_ + 1 x_("SAW_ESB_36480_36540",_"ESB_ADB_36810_36890")_ + 1 x_("AJI_ESB_36500_36605",_"ESB_ADB_36810_36890")_ + 1 x_("BAL_ESB_36510_36605",_"ESB_ADB_36810_36890")_ + 1 x_("VAN_ESB_36575_36680",_"ESB_ADB_36810_36890")_ - 1 x_("ESB_ADB_36810_36890",_"ADB_SAW_37775_37835")_ - 1 x_("ESB_ADB_36810_36890",_"ADB_ESB_36925_37000")_ - 1 x_("ESB_ADB_36810_36890",_"ADB_SAW_37025_37085")_ = 0
mp_c2_AYT_SAW_36810_36875_: 1 x_("SAW_AYT_36705_36770",_"AYT_SAW_36810_36875")_ - 1 x_("AYT_SAW_36810_36875",_"SAW_VAS_38130_38210")_ - 1 x_("AYT_SAW_36810_36875",_"SAW_AYT_38145_38210")_ - 1 x_("AYT_SAW_36810_36875",_"SAW_ESB_38280_38340")_ - 1 x_("AYT_SAW_36810_36875",_"SAW_ESB_37740_37800")_ - 1 x_("AYT_SAW_36810_36875",_"SAW_KYA_36990_37060")_ - 1 x_("AYT_SAW_36810_36875",_"SAW_ASR_36975_37060")_ - 1 x_("AYT_SAW_36810_36875",_"SAW_ESB_37920_37980")_ - 1 x_("AYT_SAW_36810_36875",_"SAW_ADB_37680_37740")_ - 1 x_("AYT_SAW_36810_36875",_"SAW_TZX_37905_38005")_ - 1 x_("AYT_SAW_36810_36875",_"SAW_ADB_36930_36990")_ = 0
mp_c2_SAW_ESB_36840_36900_: 1 x_("AYT_SAW_35370_35435",_"SAW_ESB_36840_36900")_ + 1 x_("ADB_SAW_35585_35645",_"SAW_ESB_36840_36900")_ + 1 x_("ASR_SAW_35655_35745",_"SAW_ESB_36840_36900")_ + 1 x_("KYA_SAW_35655_35725",_"SAW_ESB_36840_36900")_ + 1 x_("ADB_SAW_36335_36395",_"SAW_ESB_36840_36900")_ + 1 x_("ESB_SAW_36360_36420",_"SAW_ESB_36840_36900")_ + 1 x_("ESB_SAW_36600_36660",_"SAW_ESB_36840_36900")_ + 1 x_("TZX_SAW_36600_36705",_"SAW_ESB_36840_36900")_ + 1 x_("ESB_SAW_36720_36780",_"SAW_ESB_36840_36900")_ - 1 x_("SAW_ESB_36840_36900",_"ESB_SZF_36980_37040")_ - 1 x_("SAW_ESB_36840_36900",_"ESB_ERC_38130_38210")_ - 1 x_("SAW_ESB_36840_36900",_"ESB_SAW_37800_37860")_ - 1 x_("SAW_ESB_36840_36900",_"ESB_ECN_38100_38170")_ - 1 x_("SAW_ESB_36840_36900",_"ESB_GNY_36940_37015")_ - 1 x_("SAW_ESB_36840_36900",_"ESB_SAW_38040_38100")_ - 1 x_("SAW_ESB_36840_36900",_"ESB_ECN_37185_37255")_ - 1 x_("SAW_ESB_36840_36900",_"ESB_YEI_37195_37255")_ - 1 x_("SAW_ESB_36840_36900",_"ESB_ADA_36960_37020")_ - 1 x_("SAW_ESB_36840_36900",_"ESB_HTY_37190_37270")_ - 1 x_("SAW_ESB_36840_36900",_"ESB_AJI_37810_37905")_ - 1 x_("SAW_ESB_36840_36900",_"ESB_SAW_38160_38220")_ - 1 x_("SAW_ESB_36840_36900",_"ESB_VAN_37885_37980")_ - 1 x_("SAW_ESB_36840_36900",_"ESB_MQM_38090_38185")_ - 1 x_("SAW_ESB_36840_36900",_"ESB_AYT_37980_38045")_ - 1 x_("SAW_ESB_36840_36900",_"ESB_MLX_37180_37255")_ - 1 x_("SAW_ESB_36840_36900",_"ESB_ADB_38250_38330")_ - 1 x_("SAW_ESB_36840_36900",_"ESB_BAL_37825_37915")_ - 1 x_("SAW_ESB_36840_36900",_"ESB_TZX_37800_37880")_ = 0
mp_c2_ECN_HTY_36840_36905_: 1 x_("HTY_ECN_35505_35570",_"ECN_HTY_36840_36905")_ + 1 x_("ESB_ECN_35745_35815",_"ECN_HTY_36840_36905")_ + 1 x_("ESB_ECN_36660_36730",_"ECN_HTY_36840_36905")_ - 1 x_("ECN_HTY_36840_36905",_"HTY_ECN_36945_37010")_ - 1 x_("ECN_HTY_36840_36905",_"HTY_ESB_37680_37755")_ = 0
mp_c2_ADB_ESB_36925_37000_: 1 x_("SAW_ADB_35490_35550",_"ADB_ESB_36925_37000")_ + 1 x_("SAW_ADB_36240_36300",_"ADB_ESB_36925_37000")_ + 1 x_("ESB_ADB_36810_36890",_"ADB_ESB_36925_37000")_ - 1 x_("ADB_ESB_36925_37000",_"ESB_ERC_38130_38210")_ - 1 x_("ADB_ESB_36925_37000",_"ESB_SAW_37800_37860")_ - 1 x_("ADB_ESB_36925_37000",_"ESB_SZF_38420_38480")_ - 1 x_("ADB_ESB_36925_37000",_"ESB_ECN_38100_38170")_ - 1 x_("ADB_ESB_36925_37000",_"ESB_SAW_38040_38100")_ - 1 x_("ADB_ESB_36925_37000",_"ESB_ECN_37185_37255")_ - 1 x_("ADB_ESB_36925_37000",_"ESB_YEI_37195_37255")_ - 1 x_("ADB_ESB_36925_37000",_"ESB_HTY_37190_37270")_ - 1 x_("ADB_ESB_36925_37000",_"ESB_AJI_37810_37905")_ - 1 x_("ADB_ESB_36925_37000",_"ESB_SAW_38160_38220")_ - 1 x_("ADB_ESB_36925_37000",_"ESB_VAN_37885_37980")_ - 1 x_("ADB_ESB_36925_37000",_"ESB_MQM_38090_38185")_ - 1 x_("ADB_ESB_36925_37000",_"ESB_AYT_37980_38045")_ - 1 x_("ADB_ESB_36925_37000",_"ESB_GNY_38380_38455")_ - 1 x_("ADB_ESB_36925_37000",_"ESB_MLX_37180_37255")_ - 1 x_("ADB_ESB_36925_37000",_"ESB_ADB_38250_38330")_ - 1 x_("ADB_ESB_36925_37000",_"ESB_BAL_37825_37915")_ - 1 x_("ADB_ESB_36925_37000",_"ESB_ADA_38400_38460")_ - 1 x_("ADB_ESB_36925_37000",_"ESB_TZX_37800_37880")_ = 0
mp_c2_SAW_ADB_36930_36990_: 1 x_("ADB_SAW_35585_35645",_"SAW_ADB_36930_36990")_ + 1 x_("ASR_SAW_35655_35745",_"SAW_ADB_36930_36990")_ + 1 x_("KYA_SAW_35655_35725",_"SAW_ADB_36930_36990")_ + 1 x_("ADB_SAW_36335_36395",_"SAW_ADB_36930_36990")_ + 1 x_("ESB_SAW_36360_36420",_"SAW_ADB_36930_36990")_ + 1 x_("ESB_SAW_36600_36660",_"SAW_ADB_36930_36990")_ + 1 x_("TZX_SAW_36600_36705",_"SAW_ADB_36930_36990")_ + 1 x_("ESB_SAW_36720_36780",_"SAW_ADB_36930_36990")_ + 1 x_("VAS_SAW_36805_36885",_"SAW_ADB_36930_36990")_ + 1 x_("AYT_SAW_36810_36875",_"SAW_ADB_36930_36990")_ - 1 x_("SAW_ADB_36930_36990",_"ADB_ESB_38365_38440")_ - 1 x_("SAW_ADB_36930_36990",_"ADB_SAW_37775_37835")_ - 1 x_("SAW_ADB_36930_36990",_"ADB_SAW_37025_37085")_ = 0
mp_c2_ESB_GNY_36940_37015_: 1 x_("ADB_ESB_35485_35560",_"ESB_GNY_36940_37015")_ + 1 x_("GNY_ESB_35610_35690",_"ESB_GNY_36940_37015")_ + 1 x_("ECN_ESB_35615_35685",_"ESB_GNY_36940_37015")_ + 1 x_("ADA_ESB_35620_35685",_"ESB_GNY_36940_37015")_ + 1 x_("SZF_ESB_35635_35695",_"ESB_GNY_36940_37015")_ + 1 x_("ECN_ESB_36240_36310",_"ESB_GNY_36940_37015")_ + 1 x_("YEI_ESB_36240_36300",_"ESB_GNY_36940_37015")_ + 1 x_("MLX_ESB_36240_36315",_"ESB_GNY_36940_37015")_ + 1 x_("HTY_ESB_36240_36315",_"ESB_GNY_36940_37015")_ + 1 x_("SAW_ESB_36300_36360",_"ESB_GNY_36940_37015")_ + 1 x_("TZX_ESB_36475_36555",_"ESB_GNY_36940_37015")_ + 1 x_("SAW_ESB_36480_36540",_"ESB_GNY_36940_37015")_ + 1 x_("AJI_ESB_36500_36605",_"ESB_GNY_36940_37015")_ + 1 x_("BAL_ESB_36510_36605",_"ESB_GNY_36940_37015")_ + 1 x_("VAN_ESB_36575_36680",_"ESB_GNY_36940_37015")_ + 1 x_("MQM_ESB_36780_36875",_"ESB_GNY_36940_37015")_ + 1 x_("ERC_ESB_36805_36885",_"ESB_GNY_36940_37015")_ + 1 x_("SAW_ESB_36840_36900",_"ESB_GNY_36940_37015")_ - 1 x_("ESB_GNY_36940_37015",_"GNY_ESB_37050_37130")_ = 0
mp_c2_HTY_ECN_36945_37010_: 1 x_("ESB_HTY_35750_35830",_"HTY_ECN_36945_37010")_ + 1 x_("ECN_HTY_36840_36905",_"HTY_ECN_36945_37010")_ - 1 x_("HTY_ECN_36945_37010",_"ECN_HTY_38280_38345")_ - 1 x_("HTY_ECN_36945_37010",_"ECN_ESB_37055_37125")_ - 1 x_("HTY_ECN_36945_37010",_"ECN_ESB_37680_37750")_ = 0
mp_c2_ESB_ADA_36960_37020_: 1 x_("ADB_ESB_35485_35560",_"ESB_ADA_36960_37020")_ + 1 x_("GNY_ESB_35610_35690",_"ESB_ADA_36960_37020")_ + 1 x_("ECN_ESB_35615_35685",_"ESB_ADA_36960_37020")_ + 1 x_("ADA_ESB_35620_35685",_"ESB_ADA_36960_37020")_ + 1 x_("SZF_ESB_35635_35695",_"ESB_ADA_36960_37020")_ + 1 x_("ECN_ESB_36240_36310",_"ESB_ADA_36960_37020")_ + 1 x_("YEI_ESB_36240_36300",_"ESB_ADA_36960_37020")_ + 1 x_("MLX_ESB_36240_36315",_"ESB_ADA_36960_37020")_ + 1 x_("HTY_ESB_36240_36315",_"ESB_ADA_36960_37020")_ + 1 x_("SAW_ESB_36300_36360",_"ESB_ADA_36960_37020")_ + 1 x_("TZX_ESB_36475_36555",_"ESB_ADA_36960_37020")_ + 1 x_("SAW_ESB_36480_36540",_"ESB_ADA_36960_37020")_ + 1 x_("AJI_ESB_36500_36605",_"ESB_ADA_36960_37020")_ + 1 x_("BAL_ESB_36510_36605",_"ESB_ADA_36960_37020")_ + 1 x_("VAN_ESB_36575_36680",_"ESB_ADA_36960_37020")_ + 1 x_("MQM_ESB_36780_36875",_"ESB_ADA_36960_37020")_ + 1 x_("ERC_ESB_36805_36885",_"ESB_ADA_36960_37020")_ + 1 x_("SAW_ESB_36840_36900",_"ESB_ADA_36960_37020")_ - 1 x_("ESB_ADA_36960_37020",_"ADA_ESB_37060_37125")_ = 0
mp_c2_SAW_ASR_36975_37060_: 1 x_("ADB_SAW_35585_35645",_"SAW_ASR_36975_37060")_ + 1 x_("ASR_SAW_35655_35745",_"SAW_ASR_36975_37060")_ + 1 x_("KYA_SAW_35655_35725",_"SAW_ASR_36975_37060")_ + 1 x_("ADB_SAW_36335_36395",_"SAW_ASR_36975_37060")_ + 1 x_("ESB_SAW_36360_36420",_"SAW_ASR_36975_37060")_ + 1 x_("ESB_SAW_36600_36660",_"SAW_ASR_36975_37060")_ + 1 x_("TZX_SAW_36600_36705",_"SAW_ASR_36975_37060")_ + 1 x_("ESB_SAW_36720_36780",_"SAW_ASR_36975_37060")_ + 1 x_("VAS_SAW_36805_36885",_"SAW_ASR_36975_37060")_ + 1 x_("AYT_SAW_36810_36875",_"SAW_ASR_36975_37060")_ - 1 x_("SAW_ASR_36975_37060",_"ASR_SAW_37095_37185")_ = 0
mp_c2_ESB_SZF_36980_37040_: 1 x_("ADB_ESB_35485_35560",_"ESB_SZF_36980_37040")_ + 1 x_("GNY_ESB_35610_35690",_"ESB_SZF_36980_37040")_ + 1 x_("ECN_ESB_35615_35685",_"ESB_SZF_36980_37040")_ + 1 x_("ADA_ESB_35620_35685",_"ESB_SZF_36980_37040")_ + 1 x_("SZF_ESB_35635_35695",_"ESB_SZF_36980_37040")_ + 1 x_("ECN_ESB_36240_36310",_"ESB_SZF_36980_37040")_ + 1 x_("YEI_ESB_36240_36300",_"ESB_SZF_36980_37040")_ + 1 x_("MLX_ESB_36240_36315",_"ESB_SZF_36980_37040")_ + 1 x_("HTY_ESB_36240_36315",_"ESB_SZF_36980_37040")_ + 1 x_("SAW_ESB_36300_36360",_"ESB_SZF_36980_37040")_ + 1 x_("TZX_ESB_36475_36555",_"ESB_SZF_36980_37040")_ + 1 x_("SAW_ESB_36480_36540",_"ESB_SZF_36980_37040")_ + 1 x_("AJI_ESB_36500_36605",_"ESB_SZF_36980_37040")_ + 1 x_("BAL_ESB_36510_36605",_"ESB_SZF_36980_37040")_ + 1 x_("VAN_ESB_36575_36680",_"ESB_SZF_36980_37040")_ + 1 x_("MQM_ESB_36780_36875",_"ESB_SZF_36980_37040")_ + 1 x_("ERC_ESB_36805_36885",_"ESB_SZF_36980_37040")_ + 1 x_("SAW_ESB_36840_36900",_"ESB_SZF_36980_37040")_ - 1 x_("ESB_SZF_36980_37040",_"SZF_ESB_37075_37135")_ = 0
mp_c2_SAW_KYA_36990_37060_: 1 x_("ADB_SAW_35585_35645",_"SAW_KYA_36990_37060")_ + 1 x_("ASR_SAW_35655_35745",_"SAW_KYA_36990_37060")_ + 1 x_("KYA_SAW_35655_35725",_"SAW_KYA_36990_37060")_ + 1 x_("ADB_SAW_36335_36395",_"SAW_KYA_36990_37060")_ + 1 x_("ESB_SAW_36360_36420",_"SAW_KYA_36990_37060")_ + 1 x_("ESB_SAW_36600_36660",_"SAW_KYA_36990_37060")_ + 1 x_("TZX_SAW_36600_36705",_"SAW_KYA_36990_37060")_ + 1 x_("ESB_SAW_36720_36780",_"SAW_KYA_36990_37060")_ + 1 x_("VAS_SAW_36805_36885",_"SAW_KYA_36990_37060")_ + 1 x_("AYT_SAW_36810_36875",_"SAW_KYA_36990_37060")_ - 1 x_("SAW_KYA_36990_37060",_"KYA_SAW_37095_37165")_ = 0
mp_c2_ADB_SAW_37025_37085_: 1 x_("SAW_ADB_36240_36300",_"ADB_SAW_37025_37085")_ + 1 x_("ESB_ADB_36810_36890",_"ADB_SAW_37025_37085")_ + 1 x_("SAW_ADB_36930_36990",_"ADB_SAW_37025_37085")_ - 1 x_("ADB_SAW_37025_37085",_"SAW_VAS_38130_38210")_ - 1 x_("ADB_SAW_37025_37085",_"SAW_AYT_38145_38210")_ - 1 x_("ADB_SAW_37025_37085",_"SAW_ESB_38280_38340")_ - 1 x_("ADB_SAW_37025_37085",_"SAW_ASR_38415_38500")_ - 1 x_("ADB_SAW_37025_37085",_"SAW_ESB_37740_37800")_ - 1 x_("ADB_SAW_37025_37085",_"SAW_ESB_37920_37980")_ - 1 x_("ADB_SAW_37025_37085",_"SAW_ADB_37680_37740")_ - 1 x_("ADB_SAW_37025_37085",_"SAW_ADB_38370_38430")_ - 1 x_("ADB_SAW_37025_37085",_"SAW_TZX_37905_38005")_ - 1 x_("ADB_SAW_37025_37085",_"SAW_KYA_38430_38500")_ = 0
mp_c2_GNY_ESB_37050_37130_: 1 x_("ESB_GNY_36940_37015",_"GNY_ESB_37050_37130")_ - 1 x_("GNY_ESB_37050_37130",_"ESB_ERC_38130_38210")_ - 1 x_("GNY_ESB_37050_37130",_"ESB_SAW_37800_37860")_ - 1 x_("GNY_ESB_37050_37130",_"ESB_SZF_38420_38480")_ - 1 x_("GNY_ESB_37050_37130",_"ESB_ECN_38100_38170")_ - 1 x_("GNY_ESB_37050_37130",_"ESB_SAW_38040_38100")_ - 1 x_("GNY_ESB_37050_37130",_"ESB_ECN_37185_37255")_ - 1 x_("GNY_ESB_37050_37130",_"ESB_YEI_37195_37255")_ - 1 x_("GNY_ESB_37050_37130",_"ESB_HTY_37190_37270")_ - 1 x_("GNY_ESB_37050_37130",_"ESB_AJI_37810_37905")_ - 1 x_("GNY_ESB_37050_37130",_"ESB_SAW_38160_38220")_ - 1 x_("GNY_ESB_37050_37130",_"ESB_VAN_37885_37980")_ - 1 x_("GNY_ESB_37050_37130",_"ESB_MQM_38090_38185")_ - 1 x_("GNY_ESB_37050_37130",_"ESB_AYT_37980_38045")_ - 1 x_("GNY_ESB_37050_37130",_"ESB_GNY_38380_38455")_ - 1 x_("GNY_ESB_37050_37130",_"ESB_MLX_37180_37255")_ - 1 x_("GNY_ESB_37050_37130",_"ESB_ADB_38250_38330")_ - 1 x_("GNY_ESB_37050_37130",_"ESB_BAL_37825_37915")_ - 1 x_("GNY_ESB_37050_37130",_"ESB_ADA_38400_38460")_ - 1 x_("GNY_ESB_37050_37130",_"ESB_TZX_37800_37880")_ = 0
mp_c2_ECN_ESB_37055_37125_: 1 x_("ESB_ECN_35745_35815",_"ECN_ESB_37055_37125")_ + 1 x_("ESB_ECN_36660_36730",_"ECN_ESB_37055_37125")_ + 1 x_("HTY_ECN_36945_37010",_"ECN_ESB_37055_37125")_ - 1 x_("ECN_ESB_37055_37125",_"ESB_ERC_38130_38210")_ - 1 x_("ECN_ESB_37055_37125",_"ESB_SAW_37800_37860")_ - 1 x_("ECN_ESB_37055_37125",_"ESB_SZF_38420_38480")_ - 1 x_("ECN_ESB_37055_37125",_"ESB_ECN_38100_38170")_ - 1 x_("ECN_ESB_37055_37125",_"ESB_SAW_38040_38100")_ - 1 x_("ECN_ESB_37055_37125",_"ESB_ECN_37185_37255")_ - 1 x_("ECN_ESB_37055_37125",_"ESB_YEI_37195_37255")_ - 1 x_("ECN_ESB_37055_37125",_"ESB_HTY_37190_37270")_ - 1 x_("ECN_ESB_37055_37125",_"ESB_AJI_37810_37905")_ - 1 x_("ECN_ESB_37055_37125",_"ESB_SAW_38160_38220")_ - 1 x_("ECN_ESB_37055_37125",_"ESB_VAN_37885_37980")_ - 1 x_("ECN_ESB_37055_37125",_"ESB_MQM_38090_38185")_ - 1 x_("ECN_ESB_37055_37125",_"ESB_AYT_37980_38045")_ - 1 x_("ECN_ESB_37055_37125",_"ESB_GNY_38380_38455")_ - 1 x_("ECN_ESB_37055_37125",_"ESB_MLX_37180_37255")_ - 1 x_("ECN_ESB_37055_37125",_"ESB_ADB_38250_38330")_ - 1 x_("ECN_ESB_37055_37125",_"ESB_BAL_37825_37915")_ - 1 x_("ECN_ESB_37055_37125",_"ESB_ADA_38400_38460")_ - 1 x_("ECN_ESB_37055_37125",_"ESB_TZX_37800_37880")_ = 0
mp_c2_ADA_ESB_37060_37125_: 1 x_("ESB_ADA_36960_37020",_"ADA_ESB_37060_37125")_ - 1 x_("ADA_ESB_37060_37125",_"ESB_ERC_38130_38210")_ - 1 x_("ADA_ESB_37060_37125",_"ESB_SAW_37800_37860")_ - 1 x_("ADA_ESB_37060_37125",_"ESB_SZF_38420_38480")_ - 1 x_("ADA_ESB_37060_37125",_"ESB_ECN_38100_38170")_ - 1 x_("ADA_ESB_37060_37125",_"ESB_SAW_38040_38100")_ - 1 x_("ADA_ESB_37060_37125",_"ESB_ECN_37185_37255")_ - 1 x_("ADA_ESB_37060_37125",_"ESB_YEI_37195_37255")_ - 1 x_("ADA_ESB_37060_37125",_"ESB_HTY_37190_37270")_ - 1 x_("ADA_ESB_37060_37125",_"ESB_AJI_37810_37905")_ - 1 x_("ADA_ESB_37060_37125",_"ESB_SAW_38160_38220")_ - 1 x_("ADA_ESB_37060_37125",_"ESB_VAN_37885_37980")_ - 1 x_("ADA_ESB_37060_37125",_"ESB_MQM_38090_38185")_ - 1 x_("ADA_ESB_37060_37125",_"ESB_AYT_37980_38045")_ - 1 x_("ADA_ESB_37060_37125",_"ESB_GNY_38380_38455")_ - 1 x_("ADA_ESB_37060_37125",_"ESB_MLX_37180_37255")_ - 1 x_("ADA_ESB_37060_37125",_"ESB_ADB_38250_38330")_ - 1 x_("ADA_ESB_37060_37125",_"ESB_BAL_37825_37915")_ - 1 x_("ADA_ESB_37060_37125",_"ESB_ADA_38400_38460")_ - 1 x_("ADA_ESB_37060_37125",_"ESB_TZX_37800_37880")_ = 0
mp_c2_SZF_ESB_37075_37135_: 1 x_("ESB_SZF_36980_37040",_"SZF_ESB_37075_37135")_ - 1 x_("SZF_ESB_37075_37135",_"ESB_ERC_38130_38210")_ - 1 x_("SZF_ESB_37075_37135",_"ESB_SAW_37800_37860")_ - 1 x_("SZF_ESB_37075_37135",_"ESB_SZF_38420_38480")_ - 1 x_("SZF_ESB_37075_37135",_"ESB_ECN_38100_38170")_ - 1 x_("SZF_ESB_37075_37135",_"ESB_SAW_38040_38100")_ - 1 x_("SZF_ESB_37075_37135",_"ESB_ECN_37185_37255")_ - 1 x_("SZF_ESB_37075_37135",_"ESB_YEI_37195_37255")_ - 1 x_("SZF_ESB_37075_37135",_"ESB_HTY_37190_37270")_ - 1 x_("SZF_ESB_37075_37135",_"ESB_AJI_37810_37905")_ - 1 x_("SZF_ESB_37075_37135",_"ESB_SAW_38160_38220")_ - 1 x_("SZF_ESB_37075_37135",_"ESB_VAN_37885_37980")_ - 1 x_("SZF_ESB_37075_37135",_"ESB_MQM_38090_38185")_ - 1 x_("SZF_ESB_37075_37135",_"ESB_AYT_37980_38045")_ - 1 x_("SZF_ESB_37075_37135",_"ESB_GNY_38380_38455")_ - 1 x_("SZF_ESB_37075_37135",_"ESB_MLX_37180_37255")_ - 1 x_("SZF_ESB_37075_37135",_"ESB_ADB_38250_38330")_ - 1 x_("SZF_ESB_37075_37135",_"ESB_BAL_37825_37915")_ - 1 x_("SZF_ESB_37075_37135",_"ESB_ADA_38400_38460")_ - 1 x_("SZF_ESB_37075_37135",_"ESB_TZX_37800_37880")_ = 0
mp_c2_ASR_SAW_37095_37185_: 1 x_("SAW_ASR_36975_37060",_"ASR_SAW_37095_37185")_ - 1 x_("ASR_SAW_37095_37185",_"SAW_VAS_38130_38210")_ - 1 x_("ASR_SAW_37095_37185",_"SAW_AYT_38145_38210")_ - 1 x_("ASR_SAW_37095_37185",_"SAW_ESB_38280_38340")_ - 1 x_("ASR_SAW_37095_37185",_"SAW_ASR_38415_38500")_ - 1 x_("ASR_SAW_37095_37185",_"SAW_ESB_37740_37800")_ - 1 x_("ASR_SAW_37095_37185",_"SAW_ESB_37920_37980")_ - 1 x_("ASR_SAW_37095_37185",_"SAW_ADB_37680_37740")_ - 1 x_("ASR_SAW_37095_37185",_"SAW_ADB_38370_38430")_ - 1 x_("ASR_SAW_37095_37185",_"SAW_TZX_37905_38005")_ - 1 x_("ASR_SAW_37095_37185",_"SAW_KYA_38430_38500")_ = 0
mp_c2_KYA_SAW_37095_37165_: 1 x_("SAW_KYA_36990_37060",_"KYA_SAW_37095_37165")_ - 1 x_("KYA_SAW_37095_37165",_"SAW_VAS_38130_38210")_ - 1 x_("KYA_SAW_37095_37165",_"SAW_AYT_38145_38210")_ - 1 x_("KYA_SAW_37095_37165",_"SAW_ESB_38280_38340")_ - 1 x_("KYA_SAW_37095_37165",_"SAW_ASR_38415_38500")_ - 1 x_("KYA_SAW_37095_37165",_"SAW_ESB_37740_37800")_ - 1 x_("KYA_SAW_37095_37165",_"SAW_ESB_37920_37980")_ - 1 x_("KYA_SAW_37095_37165",_"SAW_ADB_37680_37740")_ - 1 x_("KYA_SAW_37095_37165",_"SAW_ADB_38370_38430")_ - 1 x_("KYA_SAW_37095_37165",_"SAW_TZX_37905_38005")_ - 1 x_("KYA_SAW_37095_37165",_"SAW_KYA_38430_38500")_ = 0
mp_c2_ESB_MLX_37180_37255_: 1 x_("ECN_ESB_36240_36310",_"ESB_MLX_37180_37255")_ + 1 x_("YEI_ESB_36240_36300",_"ESB_MLX_37180_37255")_ + 1 x_("MLX_ESB_36240_36315",_"ESB_MLX_37180_37255")_ + 1 x_("HTY_ESB_36240_36315",_"ESB_MLX_37180_37255")_ + 1 x_("SAW_ESB_36300_36360",_"ESB_MLX_37180_37255")_ + 1 x_("TZX_ESB_36475_36555",_"ESB_MLX_37180_37255")_ + 1 x_("SAW_ESB_36480_36540",_"ESB_MLX_37180_37255")_ + 1 x_("AJI_ESB_36500_36605",_"ESB_MLX_37180_37255")_ + 1 x_("BAL_ESB_36510_36605",_"ESB_MLX_37180_37255")_ + 1 x_("VAN_ESB_36575_36680",_"ESB_MLX_37180_37255")_ + 1 x_("MQM_ESB_36780_36875",_"ESB_MLX_37180_37255")_ + 1 x_("ERC_ESB_36805_36885",_"ESB_MLX_37180_37255")_ + 1 x_("SAW_ESB_36840_36900",_"ESB_MLX_37180_37255")_ + 1 x_("ADB_ESB_36925_37000",_"ESB_MLX_37180_37255")_ + 1 x_("GNY_ESB_37050_37130",_"ESB_MLX_37180_37255")_ + 1 x_("ECN_ESB_37055_37125",_"ESB_MLX_37180_37255")_ + 1 x_("ADA_ESB_37060_37125",_"ESB_MLX_37180_37255")_ + 1 x_("SZF_ESB_37075_37135",_"ESB_MLX_37180_37255")_ - 1 x_("ESB_MLX_37180_37255",_"MLX_ESB_37680_37755")_ = 0
mp_c2_ESB_ECN_37185_37255_: 1 x_("ECN_ESB_36240_36310",_"ESB_ECN_37185_37255")_ + 1 x_("YEI_ESB_36240_36300",_"ESB_ECN_37185_37255")_ + 1 x_("MLX_ESB_36240_36315",_"ESB_ECN_37185_37255")_ + 1 x_("HTY_ESB_36240_36315",_"ESB_ECN_37185_37255")_ + 1 x_("SAW_ESB_36300_36360",_"ESB_ECN_37185_37255")_ + 1 x_("TZX_ESB_36475_36555",_"ESB_ECN_37185_37255")_ + 1 x_("SAW_ESB_36480_36540",_"ESB_ECN_37185_37255")_ + 1 x_("AJI_ESB_36500_36605",_"ESB_ECN_37185_37255")_ + 1 x_("BAL_ESB_36510_36605",_"ESB_ECN_37185_37255")_ + 1 x_("VAN_ESB_36575_36680",_"ESB_ECN_37185_37255")_ + 1 x_("MQM_ESB_36780_36875",_"ESB_ECN_37185_37255")_ + 1 x_("ERC_ESB_36805_36885",_"ESB_ECN_37185_37255")_ + 1 x_("SAW_ESB_36840_36900",_"ESB_ECN_37185_37255")_ + 1 x_("ADB_ESB_36925_37000",_"ESB_ECN_37185_37255")_ + 1 x_("GNY_ESB_37050_37130",_"ESB_ECN_37185_37255")_ + 1 x_("ECN_ESB_37055_37125",_"ESB_ECN_37185_37255")_ + 1 x_("ADA_ESB_37060_37125",_"ESB_ECN_37185_37255")_ + 1 x_("SZF_ESB_37075_37135",_"ESB_ECN_37185_37255")_ - 1 x_("ESB_ECN_37185_37255",_"ECN_HTY_38280_38345")_ - 1 x_("ESB_ECN_37185_37255",_"ECN_ESB_37680_37750")_ - 1 x_("ESB_ECN_37185_37255",_"ECN_ESB_38495_38565")_ = 0
mp_c2_ESB_HTY_37190_37270_: 1 x_("ECN_ESB_36240_36310",_"ESB_HTY_37190_37270")_ + 1 x_("YEI_ESB_36240_36300",_"ESB_HTY_37190_37270")_ + 1 x_("MLX_ESB_36240_36315",_"ESB_HTY_37190_37270")_ + 1 x_("HTY_ESB_36240_36315",_"ESB_HTY_37190_37270")_ + 1 x_("SAW_ESB_36300_36360",_"ESB_HTY_37190_37270")_ + 1 x_("TZX_ESB_36475_36555",_"ESB_HTY_37190_37270")_ + 1 x_("SAW_ESB_36480_36540",_"ESB_HTY_37190_37270")_ + 1 x_("AJI_ESB_36500_36605",_"ESB_HTY_37190_37270")_ + 1 x_("BAL_ESB_36510_36605",_"ESB_HTY_37190_37270")_ + 1 x_("VAN_ESB_36575_36680",_"ESB_HTY_37190_37270")_ + 1 x_("MQM_ESB_36780_36875",_"ESB_HTY_37190_37270")_ + 1 x_("ERC_ESB_36805_36885",_"ESB_HTY_37190_37270")_ + 1 x_("SAW_ESB_36840_36900",_"ESB_HTY_37190_37270")_ + 1 x_("ADB_ESB_36925_37000",_"ESB_HTY_37190_37270")_ + 1 x_("GNY_ESB_37050_37130",_"ESB_HTY_37190_37270")_ + 1 x_("ECN_ESB_37055_37125",_"ESB_HTY_37190_37270")_ + 1 x_("ADA_ESB_37060_37125",_"ESB_HTY_37190_37270")_ + 1 x_("SZF_ESB_37075_37135",_"ESB_HTY_37190_37270")_ - 1 x_("ESB_HTY_37190_37270",_"HTY_ECN_38385_38450")_ - 1 x_("ESB_HTY_37190_37270",_"HTY_ESB_37680_37755")_ = 0
mp_c2_ESB_YEI_37195_37255_: 1 x_("ECN_ESB_36240_36310",_"ESB_YEI_37195_37255")_ + 1 x_("YEI_ESB_36240_36300",_"ESB_YEI_37195_37255")_ + 1 x_("MLX_ESB_36240_36315",_"ESB_YEI_37195_37255")_ + 1 x_("HTY_ESB_36240_36315",_"ESB_YEI_37195_37255")_ + 1 x_("SAW_ESB_36300_36360",_"ESB_YEI_37195_37255")_ + 1 x_("TZX_ESB_36475_36555",_"ESB_YEI_37195_37255")_ + 1 x_("SAW_ESB_36480_36540",_"ESB_YEI_37195_37255")_ + 1 x_("AJI_ESB_36500_36605",_"ESB_YEI_37195_37255")_ + 1 x_("BAL_ESB_36510_36605",_"ESB_YEI_37195_37255")_ + 1 x_("VAN_ESB_36575_36680",_"ESB_YEI_37195_37255")_ + 1 x_("MQM_ESB_36780_36875",_"ESB_YEI_37195_37255")_ + 1 x_("ERC_ESB_36805_36885",_"ESB_YEI_37195_37255")_ + 1 x_("SAW_ESB_36840_36900",_"ESB_YEI_37195_37255")_ + 1 x_("ADB_ESB_36925_37000",_"ESB_YEI_37195_37255")_ + 1 x_("GNY_ESB_37050_37130",_"ESB_YEI_37195_37255")_ + 1 x_("ECN_ESB_37055_37125",_"ESB_YEI_37195_37255")_ + 1 x_("ADA_ESB_37060_37125",_"ESB_YEI_37195_37255")_ + 1 x_("SZF_ESB_37075_37135",_"ESB_YEI_37195_37255")_ - 1 x_("ESB_YEI_37195_37255",_"YEI_ESB_37680_37740")_ = 0
mp_c2_SAW_ADB_37680_37740_: 1 x_("ADB_SAW_36335_36395",_"SAW_ADB_37680_37740")_ + 1 x_("ESB_SAW_36360_36420",_"SAW_ADB_37680_37740")_ + 1 x_("ESB_SAW_36600_36660",_"SAW_ADB_37680_37740")_ + 1 x_("TZX_SAW_36600_36705",_"SAW_ADB_37680_37740")_ + 1 x_("ESB_SAW_36720_36780",_"SAW_ADB_37680_37740")_ + 1 x_("VAS_SAW_36805_36885",_"SAW_ADB_37680_37740")_ + 1 x_("AYT_SAW_36810_36875",_"SAW_ADB_37680_37740")_ + 1 x_("ADB_SAW_37025_37085",_"SAW_ADB_37680_37740")_ + 1 x_("ASR_SAW_37095_37185",_"SAW_ADB_37680_37740")_ + 1 x_("KYA_SAW_37095_37165",_"SAW_ADB_37680_37740")_ - 1 x_("SAW_ADB_37680_37740",_"ADB_ESB_38365_38440")_ - 1 x_("SAW_ADB_37680_37740",_"ADB_SAW_37775_37835")_ - 1 x_("SAW_ADB_37680_37740",_"ADB_SAW_38465_38525")_ = 0
mp_c2_ECN_ESB_37680_37750_: 1 x_("ESB_ECN_36660_36730",_"ECN_ESB_37680_37750")_ + 1 x_("HTY_ECN_36945_37010",_"ECN_ESB_37680_37750")_ + 1 x_("ESB_ECN_37185_37255",_"ECN_ESB_37680_37750")_ - 1 x_("ECN_ESB_37680_37750",_"ESB_ERC_38130_38210")_ - 1 x_("ECN_ESB_37680_37750",_"ESB_SAW_37800_37860")_ - 1 x_("ECN_ESB_37680_37750",_"ESB_SZF_38420_38480")_ - 1 x_("ECN_ESB_37680_37750",_"ESB_ECN_38100_38170")_ - 1 x_("ECN_ESB_37680_37750",_"ESB_ECN_38625_38695")_ - 1 x_("ECN_ESB_37680_37750",_"ESB_SAW_38040_38100")_ - 1 x_("ECN_ESB_37680_37750",_"ESB_AJI_37810_37905")_ - 1 x_("ECN_ESB_37680_37750",_"ESB_MLX_38620_38695")_ - 1 x_("ECN_ESB_37680_37750",_"ESB_SAW_38160_38220")_ - 1 x_("ECN_ESB_37680_37750",_"ESB_HTY_38630_38710")_ - 1 x_("ECN_ESB_37680_37750",_"ESB_VAN_37885_37980")_ - 1 x_("ECN_ESB_37680_37750",_"ESB_MQM_38090_38185")_ - 1 x_("ECN_ESB_37680_37750",_"ESB_AYT_37980_38045")_ - 1 x_("ECN_ESB_37680_37750",_"ESB_GNY_38380_38455")_ - 1 x_("ECN_ESB_37680_37750",_"ESB_YEI_38635_38695")_ - 1 x_("ECN_ESB_37680_37750",_"ESB_ADB_38250_38330")_ - 1 x_("ECN_ESB_37680_37750",_"ESB_BAL_37825_37915")_ - 1 x_("ECN_ESB_37680_37750",_"ESB_ADA_38400_38460")_ - 1 x_("ECN_ESB_37680_37750",_"ESB_TZX_37800_37880")_ = 0
mp_c2_YEI_ESB_37680_37740_: 1 x_("ESB_YEI_37195_37255",_"YEI_ESB_37680_37740")_ - 1 x_("YEI_ESB_37680_37740",_"ESB_ERC_38130_38210")_ - 1 x_("YEI_ESB_37680_37740",_"ESB_SAW_37800_37860")_ - 1 x_("YEI_ESB_37680_37740",_"ESB_SZF_38420_38480")_ - 1 x_("YEI_ESB_37680_37740",_"ESB_ECN_38100_38170")_ - 1 x_("YEI_ESB_37680_37740",_"ESB_ECN_38625_38695")_ - 1 x_("YEI_ESB_37680_37740",_"ESB_SAW_38040_38100")_ - 1 x_("YEI_ESB_37680_37740",_"ESB_AJI_37810_37905")_ - 1 x_("YEI_ESB_37680_37740",_"ESB_MLX_38620_38695")_ - 1 x_("YEI_ESB_37680_37740",_"ESB_SAW_38160_38220")_ - 1 x_("YEI_ESB_37680_37740",_"ESB_HTY_38630_38710")_ - 1 x_("YEI_ESB_37680_37740",_"ESB_VAN_37885_37980")_ - 1 x_("YEI_ESB_37680_37740",_"ESB_MQM_38090_38185")_ - 1 x_("YEI_ESB_37680_37740",_"ESB_AYT_37980_38045")_ - 1 x_("YEI_ESB_37680_37740",_"ESB_GNY_38380_38455")_ - 1 x_("YEI_ESB_37680_37740",_"ESB_YEI_38635_38695")_ - 1 x_("YEI_ESB_37680_37740",_"ESB_ADB_38250_38330")_ - 1 x_("YEI_ESB_37680_37740",_"ESB_BAL_37825_37915")_ - 1 x_("YEI_ESB_37680_37740",_"ESB_ADA_38400_38460")_ - 1 x_("YEI_ESB_37680_37740",_"ESB_TZX_37800_37880")_ = 0
mp_c2_MLX_ESB_37680_37755_: 1 x_("ESB_MLX_37180_37255",_"MLX_ESB_37680_37755")_ - 1 x_("MLX_ESB_37680_37755",_"ESB_ERC_38130_38210")_ - 1 x_("MLX_ESB_37680_37755",_"ESB_SAW_37800_37860")_ - 1 x_("MLX_ESB_37680_37755",_"ESB_SZF_38420_38480")_ - 1 x_("MLX_ESB_37680_37755",_"ESB_ECN_38100_38170")_ - 1 x_("MLX_ESB_37680_37755",_"ESB_ECN_38625_38695")_ - 1 x_("MLX_ESB_37680_37755",_"ESB_SAW_38040_38100")_ - 1 x_("MLX_ESB_37680_37755",_"ESB_AJI_37810_37905")_ - 1 x_("MLX_ESB_37680_37755",_"ESB_MLX_38620_38695")_ - 1 x_("MLX_ESB_37680_37755",_"ESB_SAW_38160_38220")_ - 1 x_("MLX_ESB_37680_37755",_"ESB_HTY_38630_38710")_ - 1 x_("MLX_ESB_37680_37755",_"ESB_VAN_37885_37980")_ - 1 x_("MLX_ESB_37680_37755",_"ESB_MQM_38090_38185")_ - 1 x_("MLX_ESB_37680_37755",_"ESB_AYT_37980_38045")_ - 1 x_("MLX_ESB_37680_37755",_"ESB_GNY_38380_38455")_ - 1 x_("MLX_ESB_37680_37755",_"ESB_YEI_38635_38695")_ - 1 x_("MLX_ESB_37680_37755",_"ESB_ADB_38250_38330")_ - 1 x_("MLX_ESB_37680_37755",_"ESB_BAL_37825_37915")_ - 1 x_("MLX_ESB_37680_37755",_"ESB_ADA_38400_38460")_ - 1 x_("MLX_ESB_37680_37755",_"ESB_TZX_37800_37880")_ = 0
mp_c2_HTY_ESB_37680_37755_: 1 x_("ECN_HTY_36840_36905",_"HTY_ESB_37680_37755")_ + 1 x_("ESB_HTY_37190_37270",_"HTY_ESB_37680_37755")_ - 1 x_("HTY_ESB_37680_37755",_"ESB_ERC_38130_38210")_ - 1 x_("HTY_ESB_37680_37755",_"ESB_SAW_37800_37860")_ - 1 x_("HTY_ESB_37680_37755",_"ESB_SZF_38420_38480")_ - 1 x_("HTY_ESB_37680_37755",_"ESB_ECN_38100_38170")_ - 1 x_("HTY_ESB_37680_37755",_"ESB_ECN_38625_38695")_ - 1 x_("HTY_ESB_37680_37755",_"ESB_SAW_38040_38100")_ - 1 x_("HTY_ESB_37680_37755",_"ESB_AJI_37810_37905")_ - 1 x_("HTY_ESB_37680_37755",_"ESB_MLX_38620_38695")_ - 1 x_("HTY_ESB_37680_37755",_"ESB_SAW_38160_38220")_ - 1 x_("HTY_ESB_37680_37755",_"ESB_HTY_38630_38710")_ - 1 x_("HTY_ESB_37680_37755",_"ESB_VAN_37885_37980")_ - 1 x_("HTY_ESB_37680_37755",_"ESB_MQM_38090_38185")_ - 1 x_("HTY_ESB_37680_37755",_"ESB_AYT_37980_38045")_ - 1 x_("HTY_ESB_37680_37755",_"ESB_GNY_38380_38455")_ - 1 x_("HTY_ESB_37680_37755",_"ESB_YEI_38635_38695")_ - 1 x_("HTY_ESB_37680_37755",_"ESB_ADB_38250_38330")_ - 1 x_("HTY_ESB_37680_37755",_"ESB_BAL_37825_37915")_ - 1 x_("HTY_ESB_37680_37755",_"ESB_ADA_38400_38460")_ - 1 x_("HTY_ESB_37680_37755",_"ESB_TZX_37800_37880")_ = 0
mp_c2_SAW_ESB_37740_37800_: 1 x_("ADB_SAW_36335_36395",_"SAW_ESB_37740_37800")_ + 1 x_("ESB_SAW_36360_36420",_"SAW_ESB_37740_37800")_ + 1 x_("ESB_SAW_36600_36660",_"SAW_ESB_37740_37800")_ + 1 x_("TZX_SAW_36600_36705",_"SAW_ESB_37740_37800")_ + 1 x_("ESB_SAW_36720_36780",_"SAW_ESB_37740_37800")_ + 1 x_("VAS_SAW_36805_36885",_"SAW_ESB_37740_37800")_ + 1 x_("AYT_SAW_36810_36875",_"SAW_ESB_37740_37800")_ + 1 x_("ADB_SAW_37025_37085",_"SAW_ESB_37740_37800")_ + 1 x_("ASR_SAW_37095_37185",_"SAW_ESB_37740_37800")_ + 1 x_("KYA_SAW_37095_37165",_"SAW_ESB_37740_37800")_ - 1 x_("SAW_ESB_37740_37800",_"ESB_ERC_38130_38210")_ - 1 x_("SAW_ESB_37740_37800",_"ESB_SZF_38420_38480")_ - 1 x_("SAW_ESB_37740_37800",_"ESB_ECN_38100_38170")_ - 1 x_("SAW_ESB_37740_37800",_"ESB_ECN_38625_38695")_ - 1 x_("SAW_ESB_37740_37800",_"ESB_SAW_38040_38100")_ - 1 x_("SAW_ESB_37740_37800",_"ESB_MLX_38620_38695")_ - 1 x_("SAW_ESB_37740_37800",_"ESB_SAW_38160_38220")_ - 1 x_("SAW_ESB_37740_37800",_"ESB_TZX_39240_39320")_ - 1 x_("SAW_ESB_37740_37800",_"ESB_HTY_38630_38710")_ - 1 x_("SAW_ESB_37740_37800",_"ESB_VAN_37885_37980")_ - 1 x_("SAW_ESB_37740_37800",_"ESB_MQM_38090_38185")_ - 1 x_("SAW_ESB_37740_37800",_"ESB_AYT_37980_38045")_ - 1 x_("SAW_ESB_37740_37800",_"ESB_GNY_38380_38455")_ - 1 x_("SAW_ESB_37740_37800",_"ESB_YEI_38635_38695")_ - 1 x_("SAW_ESB_37740_37800",_"ESB_ADB_38250_38330")_ - 1 x_("SAW_ESB_37740_37800",_"ESB_ADA_38400_38460")_ = 0
mp_c2_ADB_SAW_37775_37835_: 1 x_("ESB_ADB_36810_36890",_"ADB_SAW_37775_37835")_ + 1 x_("SAW_ADB_36930_36990",_"ADB_SAW_37775_37835")_ + 1 x_("SAW_ADB_37680_37740",_"ADB_SAW_37775_37835")_ - 1 x_("ADB_SAW_37775_37835",_"SAW_VAS_38130_38210")_ - 1 x_("ADB_SAW_37775_37835",_"SAW_ADB_39120_39180")_ - 1 x_("ADB_SAW_37775_37835",_"SAW_AYT_38145_38210")_ - 1 x_("ADB_SAW_37775_37835",_"SAW_ESB_38280_38340")_ - 1 x_("ADB_SAW_37775_37835",_"SAW_ASR_38415_38500")_ - 1 x_("ADB_SAW_37775_37835",_"SAW_ESB_37920_37980")_ - 1 x_("ADB_SAW_37775_37835",_"SAW_ADB_38370_38430")_ - 1 x_("ADB_SAW_37775_37835",_"SAW_TZX_37905_38005")_ - 1 x_("ADB_SAW_37775_37835",_"SAW_KYA_38430_38500")_ = 0
mp_c2_ESB_SAW_37800_37860_: 1 x_("SAW_ESB_36300_36360",_"ESB_SAW_37800_37860")_ + 1 x_("TZX_ESB_36475_36555",_"ESB_SAW_37800_37860")_ + 1 x_("SAW_ESB_36480_36540",_"ESB_SAW_37800_37860")_ + 1 x_("AJI_ESB_36500_36605",_"ESB_SAW_37800_37860")_ + 1 x_("BAL_ESB_36510_36605",_"ESB_SAW_37800_37860")_ + 1 x_("VAN_ESB_36575_36680",_"ESB_SAW_37800_37860")_ + 1 x_("MQM_ESB_36780_36875",_"ESB_SAW_37800_37860")_ + 1 x_("ERC_ESB_36805_36885",_"ESB_SAW_37800_37860")_ + 1 x_("SAW_ESB_36840_36900",_"ESB_SAW_37800_37860")_ + 1 x_("ADB_ESB_36925_37000",_"ESB_SAW_37800_37860")_ + 1 x_("GNY_ESB_37050_37130",_"ESB_SAW_37800_37860")_ + 1 x_("ECN_ESB_37055_37125",_"ESB_SAW_37800_37860")_ + 1 x_("ADA_ESB_37060_37125",_"ESB_SAW_37800_37860")_ + 1 x_("SZF_ESB_37075_37135",_"ESB_SAW_37800_37860")_ + 1 x_("ECN_ESB_37680_37750",_"ESB_SAW_37800_37860")_ + 1 x_("YEI_ESB_37680_37740",_"ESB_SAW_37800_37860")_ + 1 x_("MLX_ESB_37680_37755",_"ESB_SAW_37800_37860")_ + 1 x_("HTY_ESB_37680_37755",_"ESB_SAW_37800_37860")_ - 1 x_("ESB_SAW_37800_37860",_"SAW_VAS_38130_38210")_ - 1 x_("ESB_SAW_37800_37860",_"SAW_ADB_39120_39180")_ - 1 x_("ESB_SAW_37800_37860",_"SAW_AYT_38145_38210")_ - 1 x_("ESB_SAW_37800_37860",_"SAW_ESB_38280_38340")_ - 1 x_("ESB_SAW_37800_37860",_"SAW_ASR_38415_38500")_ - 1 x_("ESB_SAW_37800_37860",_"SAW_ESB_37920_37980")_ - 1 x_("ESB_SAW_37800_37860",_"SAW_ADB_38370_38430")_ - 1 x_("ESB_SAW_37800_37860",_"SAW_TZX_37905_38005")_ - 1 x_("ESB_SAW_37800_37860",_"SAW_KYA_38430_38500")_ = 0
mp_c2_ESB_TZX_37800_37880_: 1 x_("SAW_ESB_36300_36360",_"ESB_TZX_37800_37880")_ + 1 x_("TZX_ESB_36475_36555",_"ESB_TZX_37800_37880")_ + 1 x_("SAW_ESB_36480_36540",_"ESB_TZX_37800_37880")_ + 1 x_("AJI_ESB_36500_36605",_"ESB_TZX_37800_37880")_ + 1 x_("BAL_ESB_36510_36605",_"ESB_TZX_37800_37880")_ + 1 x_("VAN_ESB_36575_36680",_"ESB_TZX_37800_37880")_ + 1 x_("MQM_ESB_36780_36875",_"ESB_TZX_37800_37880")_ + 1 x_("ERC_ESB_36805_36885",_"ESB_TZX_37800_37880")_ + 1 x_("SAW_ESB_36840_36900",_"ESB_TZX_37800_37880")_ + 1 x_("ADB_ESB_36925_37000",_"ESB_TZX_37800_37880")_ + 1 x_("GNY_ESB_37050_37130",_"ESB_TZX_37800_37880")_ + 1 x_("ECN_ESB_37055_37125",_"ESB_TZX_37800_37880")_ + 1 x_("ADA_ESB_37060_37125",_"ESB_TZX_37800_37880")_ + 1 x_("SZF_ESB_37075_37135",_"ESB_TZX_37800_37880")_ + 1 x_("ECN_ESB_37680_37750",_"ESB_TZX_37800_37880")_ + 1 x_("YEI_ESB_37680_37740",_"ESB_TZX_37800_37880")_ + 1 x_("MLX_ESB_37680_37755",_"ESB_TZX_37800_37880")_ + 1 x_("HTY_ESB_37680_37755",_"ESB_TZX_37800_37880")_ - 1 x_("ESB_TZX_37800_37880",_"TZX_SAW_38040_38145")_ - 1 x_("ESB_TZX_37800_37880",_"TZX_ESB_37915_37995")_ = 0
mp_c2_ESB_AJI_37810_37905_: 1 x_("TZX_ESB_36475_36555",_"ESB_AJI_37810_37905")_ + 1 x_("SAW_ESB_36480_36540",_"ESB_AJI_37810_37905")_ + 1 x_("AJI_ESB_36500_36605",_"ESB_AJI_37810_37905")_ + 1 x_("BAL_ESB_36510_36605",_"ESB_AJI_37810_37905")_ + 1 x_("VAN_ESB_36575_36680",_"ESB_AJI_37810_37905")_ + 1 x_("MQM_ESB_36780_36875",_"ESB_AJI_37810_37905")_ + 1 x_("ERC_ESB_36805_36885",_"ESB_AJI_37810_37905")_ + 1 x_("SAW_ESB_36840_36900",_"ESB_AJI_37810_37905")_ + 1 x_("ADB_ESB_36925_37000",_"ESB_AJI_37810_37905")_ + 1 x_("GNY_ESB_37050_37130",_"ESB_AJI_37810_37905")_ + 1 x_("ECN_ESB_37055_37125",_"ESB_AJI_37810_37905")_ + 1 x_("ADA_ESB_37060_37125",_"ESB_AJI_37810_37905")_ + 1 x_("SZF_ESB_37075_37135",_"ESB_AJI_37810_37905")_ + 1 x_("ECN_ESB_37680_37750",_"ESB_AJI_37810_37905")_ + 1 x_("YEI_ESB_37680_37740",_"ESB_AJI_37810_37905")_ + 1 x_("MLX_ESB_37680_37755",_"ESB_AJI_37810_37905")_ + 1 x_("HTY_ESB_37680_37755",_"ESB_AJI_37810_37905")_ - 1 x_("ESB_AJI_37810_37905",_"AJI_ESB_37940_38045")_ = 0
mp_c2_ESB_BAL_37825_37915_: 1 x_("TZX_ESB_36475_36555",_"ESB_BAL_37825_37915")_ + 1 x_("SAW_ESB_36480_36540",_"ESB_BAL_37825_37915")_ + 1 x_("AJI_ESB_36500_36605",_"ESB_BAL_37825_37915")_ + 1 x_("BAL_ESB_36510_36605",_"ESB_BAL_37825_37915")_ + 1 x_("VAN_ESB_36575_36680",_"ESB_BAL_37825_37915")_ + 1 x_("MQM_ESB_36780_36875",_"ESB_BAL_37825_37915")_ + 1 x_("ERC_ESB_36805_36885",_"ESB_BAL_37825_37915")_ + 1 x_("SAW_ESB_36840_36900",_"ESB_BAL_37825_37915")_ + 1 x_("ADB_ESB_36925_37000",_"ESB_BAL_37825_37915")_ + 1 x_("GNY_ESB_37050_37130",_"ESB_BAL_37825_37915")_ + 1 x_("ECN_ESB_37055_37125",_"ESB_BAL_37825_37915")_ + 1 x_("ADA_ESB_37060_37125",_"ESB_BAL_37825_37915")_ + 1 x_("SZF_ESB_37075_37135",_"ESB_BAL_37825_37915")_ + 1 x_("ECN_ESB_37680_37750",_"ESB_BAL_37825_37915")_ + 1 x_("YEI_ESB_37680_37740",_"ESB_BAL_37825_37915")_ + 1 x_("MLX_ESB_37680_37755",_"ESB_BAL_37825_37915")_ + 1 x_("HTY_ESB_37680_37755",_"ESB_BAL_37825_37915")_ - 1 x_("ESB_BAL_37825_37915",_"BAL_ESB_37950_38045")_ = 0
mp_c2_ESB_VAN_37885_37980_: 1 x_("TZX_ESB_36475_36555",_"ESB_VAN_37885_37980")_ + 1 x_("SAW_ESB_36480_36540",_"ESB_VAN_37885_37980")_ + 1 x_("AJI_ESB_36500_36605",_"ESB_VAN_37885_37980")_ + 1 x_("BAL_ESB_36510_36605",_"ESB_VAN_37885_37980")_ + 1 x_("VAN_ESB_36575_36680",_"ESB_VAN_37885_37980")_ + 1 x_("MQM_ESB_36780_36875",_"ESB_VAN_37885_37980")_ + 1 x_("ERC_ESB_36805_36885",_"ESB_VAN_37885_37980")_ + 1 x_("SAW_ESB_36840_36900",_"ESB_VAN_37885_37980")_ + 1 x_("ADB_ESB_36925_37000",_"ESB_VAN_37885_37980")_ + 1 x_("GNY_ESB_37050_37130",_"ESB_VAN_37885_37980")_ + 1 x_("ECN_ESB_37055_37125",_"ESB_VAN_37885_37980")_ + 1 x_("ADA_ESB_37060_37125",_"ESB_VAN_37885_37980")_ + 1 x_("SZF_ESB_37075_37135",_"ESB_VAN_37885_37980")_ + 1 x_("ECN_ESB_37680_37750",_"ESB_VAN_37885_37980")_ + 1 x_("YEI_ESB_37680_37740",_"ESB_VAN_37885_37980")_ + 1 x_("MLX_ESB_37680_37755",_"ESB_VAN_37885_37980")_ + 1 x_("HTY_ESB_37680_37755",_"ESB_VAN_37885_37980")_ + 1 x_("SAW_ESB_37740_37800",_"ESB_VAN_37885_37980")_ - 1 x_("ESB_VAN_37885_37980",_"VAN_ESB_38015_38120")_ = 0
mp_c2_SAW_TZX_37905_38005_: 1 x_("ESB_SAW_36600_36660",_"SAW_TZX_37905_38005")_ + 1 x_("TZX_SAW_36600_36705",_"SAW_TZX_37905_38005")_ + 1 x_("ESB_SAW_36720_36780",_"SAW_TZX_37905_38005")_ + 1 x_("VAS_SAW_36805_36885",_"SAW_TZX_37905_38005")_ + 1 x_("AYT_SAW_36810_36875",_"SAW_TZX_37905_38005")_ + 1 x_("ADB_SAW_37025_37085",_"SAW_TZX_37905_38005")_ + 1 x_("ASR_SAW_37095_37185",_"SAW_TZX_37905_38005")_ + 1 x_("KYA_SAW_37095_37165",_"SAW_TZX_37905_38005")_ + 1 x_("ADB_SAW_37775_37835",_"SAW_TZX_37905_38005")_ + 1 x_("ESB_SAW_37800_37860",_"SAW_TZX_37905_38005")_ - 1 x_("SAW_TZX_37905_38005",_"TZX_SAW_38040_38145")_ - 1 x_("SAW_TZX_37905_38005",_"TZX_ESB_39355_39435")_ = 0
mp_c2_TZX_ESB_37915_37995_: 1 x_("SAW_TZX_36465_36565",_"TZX_ESB_37915_37995")_ + 1 x_("ESB_TZX_37800_37880",_"TZX_ESB_37915_37995")_ - 1 x_("TZX_ESB_37915_37995",_"ESB_ERC_38130_38210")_ - 1 x_("TZX_ESB_37915_37995",_"ESB_SZF_38420_38480")_ - 1 x_("TZX_ESB_37915_37995",_"ESB_ECN_38100_38170")_ - 1 x_("TZX_ESB_37915_37995",_"ESB_ECN_38625_38695")_ - 1 x_("TZX_ESB_37915_37995",_"ESB_SAW_38040_38100")_ - 1 x_("TZX_ESB_37915_37995",_"ESB_MLX_38620_38695")_ - 1 x_("TZX_ESB_37915_37995",_"ESB_SAW_38160_38220")_ - 1 x_("TZX_ESB_37915_37995",_"ESB_TZX_39240_39320")_ - 1 x_("TZX_ESB_37915_37995",_"ESB_HTY_38630_38710")_ - 1 x_("TZX_ESB_37915_37995",_"ESB_MQM_38090_38185")_ - 1 x_("TZX_ESB_37915_37995",_"ESB_GNY_38380_38455")_ - 1 x_("TZX_ESB_37915_37995",_"ESB_YEI_38635_38695")_ - 1 x_("TZX_ESB_37915_37995",_"ESB_BAL_39265_39355")_ - 1 x_("TZX_ESB_37915_37995",_"ESB_ADB_38250_38330")_ - 1 x_("TZX_ESB_37915_37995",_"ESB_VAN_39325_39420")_ - 1 x_("TZX_ESB_37915_37995",_"ESB_ADA_38400_38460")_ = 0
mp_c2_SAW_ESB_37920_37980_: 1 x_("ESB_SAW_36600_36660",_"SAW_ESB_37920_37980")_ + 1 x_("TZX_SAW_36600_36705",_"SAW_ESB_37920_37980")_ + 1 x_("ESB_SAW_36720_36780",_"SAW_ESB_37920_37980")_ + 1 x_("VAS_SAW_36805_36885",_"SAW_ESB_37920_37980")_ + 1 x_("AYT_SAW_36810_36875",_"SAW_ESB_37920_37980")_ + 1 x_("ADB_SAW_37025_37085",_"SAW_ESB_37920_37980")_ + 1 x_("ASR_SAW_37095_37185",_"SAW_ESB_37920_37980")_ + 1 x_("KYA_SAW_37095_37165",_"SAW_ESB_37920_37980")_ + 1 x_("ADB_SAW_37775_37835",_"SAW_ESB_37920_37980")_ + 1 x_("ESB_SAW_37800_37860",_"SAW_ESB_37920_37980")_ - 1 x_("SAW_ESB_37920_37980",_"ESB_ERC_38130_38210")_ - 1 x_("SAW_ESB_37920_37980",_"ESB_SZF_38420_38480")_ - 1 x_("SAW_ESB_37920_37980",_"ESB_ECN_38100_38170")_ - 1 x_("SAW_ESB_37920_37980",_"ESB_ECN_38625_38695")_ - 1 x_("SAW_ESB_37920_37980",_"ESB_SAW_38040_38100")_ - 1 x_("SAW_ESB_37920_37980",_"ESB_MLX_38620_38695")_ - 1 x_("SAW_ESB_37920_37980",_"ESB_SAW_38160_38220")_ - 1 x_("SAW_ESB_37920_37980",_"ESB_TZX_39240_39320")_ - 1 x_("SAW_ESB_37920_37980",_"ESB_HTY_38630_38710")_ - 1 x_("SAW_ESB_37920_37980",_"ESB_MQM_38090_38185")_ - 1 x_("SAW_ESB_37920_37980",_"ESB_GNY_38380_38455")_ - 1 x_("SAW_ESB_37920_37980",_"ESB_YEI_38635_38695")_ - 1 x_("SAW_ESB_37920_37980",_"ESB_BAL_39265_39355")_ - 1 x_("SAW_ESB_37920_37980",_"ESB_ADB_38250_38330")_ - 1 x_("SAW_ESB_37920_37980",_"ESB_VAN_39325_39420")_ - 1 x_("SAW_ESB_37920_37980",_"ESB_ADA_38400_38460")_ = 0
mp_c2_AJI_ESB_37940_38045_: 1 x_("ESB_AJI_37810_37905",_"AJI_ESB_37940_38045")_ - 1 x_("AJI_ESB_37940_38045",_"ESB_SAW_39480_39540")_ - 1 x_("AJI_ESB_37940_38045",_"ESB_ERC_38130_38210")_ - 1 x_("AJI_ESB_37940_38045",_"ESB_SZF_38420_38480")_ - 1 x_("AJI_ESB_37940_38045",_"ESB_ECN_38100_38170")_ - 1 x_("AJI_ESB_37940_38045",_"ESB_ECN_38625_38695")_ - 1 x_("AJI_ESB_37940_38045",_"ESB_MLX_38620_38695")_ - 1 x_("AJI_ESB_37940_38045",_"ESB_SAW_38160_38220")_ - 1 x_("AJI_ESB_37940_38045",_"ESB_TZX_39240_39320")_ - 1 x_("AJI_ESB_37940_38045",_"ESB_HTY_38630_38710")_ - 1 x_("AJI_ESB_37940_38045",_"ESB_MQM_38090_38185")_ - 1 x_("AJI_ESB_37940_38045",_"ESB_GNY_38380_38455")_ - 1 x_("AJI_ESB_37940_38045",_"ESB_YEI_38635_38695")_ - 1 x_("AJI_ESB_37940_38045",_"ESB_BAL_39265_39355")_ - 1 x_("AJI_ESB_37940_38045",_"ESB_ADB_38250_38330")_ - 1 x_("AJI_ESB_37940_38045",_"ESB_VAN_39325_39420")_ - 1 x_("AJI_ESB_37940_38045",_"ESB_ADA_38400_38460")_ = 0
mp_c2_BAL_ESB_37950_38045_: 1 x_("ESB_BAL_37825_37915",_"BAL_ESB_37950_38045")_ - 1 x_("BAL_ESB_37950_38045",_"ESB_SAW_39480_39540")_ - 1 x_("BAL_ESB_37950_38045",_"ESB_ERC_38130_38210")_ - 1 x_("BAL_ESB_37950_38045",_"ESB_SZF_38420_38480")_ - 1 x_("BAL_ESB_37950_38045",_"ESB_ECN_38100_38170")_ - 1 x_("BAL_ESB_37950_38045",_"ESB_ECN_38625_38695")_ - 1 x_("BAL_ESB_37950_38045",_"ESB_MLX_38620_38695")_ - 1 x_("BAL_ESB_37950_38045",_"ESB_SAW_38160_38220")_ - 1 x_("BAL_ESB_37950_38045",_"ESB_TZX_39240_39320")_ - 1 x_("BAL_ESB_37950_38045",_"ESB_HTY_38630_38710")_ - 1 x_("BAL_ESB_37950_38045",_"ESB_MQM_38090_38185")_ - 1 x_("BAL_ESB_37950_38045",_"ESB_GNY_38380_38455")_ - 1 x_("BAL_ESB_37950_38045",_"ESB_YEI_38635_38695")_ - 1 x_("BAL_ESB_37950_38045",_"ESB_BAL_39265_39355")_ - 1 x_("BAL_ESB_37950_38045",_"ESB_ADB_38250_38330")_ - 1 x_("BAL_ESB_37950_38045",_"ESB_VAN_39325_39420")_ - 1 x_("BAL_ESB_37950_38045",_"ESB_ADA_38400_38460")_ = 0
mp_c2_ESB_AYT_37980_38045_: 1 x_("TZX_ESB_36475_36555",_"ESB_AYT_37980_38045")_ + 1 x_("SAW_ESB_36480_36540",_"ESB_AYT_37980_38045")_ + 1 x_("AJI_ESB_36500_36605",_"ESB_AYT_37980_38045")_ + 1 x_("BAL_ESB_36510_36605",_"ESB_AYT_37980_38045")_ + 1 x_("VAN_ESB_36575_36680",_"ESB_AYT_37980_38045")_ + 1 x_("MQM_ESB_36780_36875",_"ESB_AYT_37980_38045")_ + 1 x_("ERC_ESB_36805_36885",_"ESB_AYT_37980_38045")_ + 1 x_("SAW_ESB_36840_36900",_"ESB_AYT_37980_38045")_ + 1 x_("ADB_ESB_36925_37000",_"ESB_AYT_37980_38045")_ + 1 x_("GNY_ESB_37050_37130",_"ESB_AYT_37980_38045")_ + 1 x_("ECN_ESB_37055_37125",_"ESB_AYT_37980_38045")_ + 1 x_("ADA_ESB_37060_37125",_"ESB_AYT_37980_38045")_ + 1 x_("SZF_ESB_37075_37135",_"ESB_AYT_37980_38045")_ + 1 x_("ECN_ESB_37680_37750",_"ESB_AYT_37980_38045")_ + 1 x_("YEI_ESB_37680_37740",_"ESB_AYT_37980_38045")_ + 1 x_("MLX_ESB_37680_37755",_"ESB_AYT_37980_38045")_ + 1 x_("HTY_ESB_37680_37755",_"ESB_AYT_37980_38045")_ + 1 x_("SAW_ESB_37740_37800",_"ESB_AYT_37980_38045")_ - 1 x_("ESB_AYT_37980_38045",_"AYT_ESB_38080_38145")_ - 1 x_("ESB_AYT_37980_38045",_"AYT_SAW_38250_38315")_ = 0
mp_c2_VAN_ESB_38015_38120_: 1 x_("ESB_VAN_37885_37980",_"VAN_ESB_38015_38120")_ - 1 x_("VAN_ESB_38015_38120",_"ESB_SAW_39480_39540")_ - 1 x_("VAN_ESB_38015_38120",_"ESB_SZF_38420_38480")_ - 1 x_("VAN_ESB_38015_38120",_"ESB_ECN_38625_38695")_ - 1 x_("VAN_ESB_38015_38120",_"ESB_MLX_38620_38695")_ - 1 x_("VAN_ESB_38015_38120",_"ESB_SAW_38160_38220")_ - 1 x_("VAN_ESB_38015_38120",_"ESB_MQM_39530_39625")_ - 1 x_("VAN_ESB_38015_38120",_"ESB_TZX_39240_39320")_ - 1 x_("VAN_ESB_38015_38120",_"ESB_HTY_38630_38710")_ - 1 x_("VAN_ESB_38015_38120",_"ESB_GNY_38380_38455")_ - 1 x_("VAN_ESB_38015_38120",_"ESB_YEI_38635_38695")_ - 1 x_("VAN_ESB_38015_38120",_"ESB_BAL_39265_39355")_ - 1 x_("VAN_ESB_38015_38120",_"ESB_EZS_39555_39630")_ - 1 x_("VAN_ESB_38015_38120",_"ESB_ADB_38250_38330")_ - 1 x_("VAN_ESB_38015_38120",_"ESB_VAN_39325_39420")_ - 1 x_("VAN_ESB_38015_38120",_"ESB_ADA_38400_38460")_ = 0
mp_c2_TZX_SAW_38040_38145_: 1 x_("ESB_TZX_37800_37880",_"TZX_SAW_38040_38145")_ + 1 x_("SAW_TZX_37905_38005",_"TZX_SAW_38040_38145")_ - 1 x_("TZX_SAW_38040_38145",_"SAW_ADB_39120_39180")_ - 1 x_("TZX_SAW_38040_38145",_"SAW_ESB_38280_38340")_ - 1 x_("TZX_SAW_38040_38145",_"SAW_ASR_38415_38500")_ - 1 x_("TZX_SAW_38040_38145",_"SAW_NAJ_39350_39490")_ - 1 x_("TZX_SAW_38040_38145",_"SAW_AYT_39585_39650")_ - 1 x_("TZX_SAW_38040_38145",_"SAW_ADB_38370_38430")_ - 1 x_("TZX_SAW_38040_38145",_"SAW_KYA_38430_38500")_ - 1 x_("TZX_SAW_38040_38145",_"SAW_TZX_39345_39445")_ - 1 x_("TZX_SAW_38040_38145",_"SAW_ESB_39360_39420")_ = 0
mp_c2_ESB_SAW_38040_38100_: 1 x_("AJI_ESB_36500_36605",_"ESB_SAW_38040_38100")_ + 1 x_("BAL_ESB_36510_36605",_"ESB_SAW_38040_38100")_ + 1 x_("VAN_ESB_36575_36680",_"ESB_SAW_38040_38100")_ + 1 x_("MQM_ESB_36780_36875",_"ESB_SAW_38040_38100")_ + 1 x_("ERC_ESB_36805_36885",_"ESB_SAW_38040_38100")_ + 1 x_("SAW_ESB_36840_36900",_"ESB_SAW_38040_38100")_ + 1 x_("ADB_ESB_36925_37000",_"ESB_SAW_38040_38100")_ + 1 x_("GNY_ESB_37050_37130",_"ESB_SAW_38040_38100")_ + 1 x_("ECN_ESB_37055_37125",_"ESB_SAW_38040_38100")_ + 1 x_("ADA_ESB_37060_37125",_"ESB_SAW_38040_38100")_ + 1 x_("SZF_ESB_37075_37135",_"ESB_SAW_38040_38100")_ + 1 x_("ECN_ESB_37680_37750",_"ESB_SAW_38040_38100")_ + 1 x_("YEI_ESB_37680_37740",_"ESB_SAW_38040_38100")_ + 1 x_("MLX_ESB_37680_37755",_"ESB_SAW_38040_38100")_ + 1 x_("HTY_ESB_37680_37755",_"ESB_SAW_38040_38100")_ + 1 x_("SAW_ESB_37740_37800",_"ESB_SAW_38040_38100")_ + 1 x_("TZX_ESB_37915_37995",_"ESB_SAW_38040_38100")_ + 1 x_("SAW_ESB_37920_37980",_"ESB_SAW_38040_38100")_ - 1 x_("ESB_SAW_38040_38100",_"SAW_ADB_39120_39180")_ - 1 x_("ESB_SAW_38040_38100",_"SAW_AYT_38145_38210")_ - 1 x_("ESB_SAW_38040_38100",_"SAW_ESB_38280_38340")_ - 1 x_("ESB_SAW_38040_38100",_"SAW_ASR_38415_38500")_ - 1 x_("ESB_SAW_38040_38100",_"SAW_NAJ_39350_39490")_ - 1 x_("ESB_SAW_38040_38100",_"SAW_ADB_38370_38430")_ - 1 x_("ESB_SAW_38040_38100",_"SAW_KYA_38430_38500")_ - 1 x_("ESB_SAW_38040_38100",_"SAW_TZX_39345_39445")_ - 1 x_("ESB_SAW_38040_38100",_"SAW_ESB_39360_39420")_ = 0
mp_c2_AYT_ESB_38080_38145_: 1 x_("SAW_AYT_36705_36770",_"AYT_ESB_38080_38145")_ + 1 x_("ESB_AYT_37980_38045",_"AYT_ESB_38080_38145")_ - 1 x_("AYT_ESB_38080_38145",_"ESB_SAW_39480_39540")_ - 1 x_("AYT_ESB_38080_38145",_"ESB_SZF_38420_38480")_ - 1 x_("AYT_ESB_38080_38145",_"ESB_ECN_38625_38695")_ - 1 x_("AYT_ESB_38080_38145",_"ESB_MLX_38620_38695")_ - 1 x_("AYT_ESB_38080_38145",_"ESB_MQM_39530_39625")_ - 1 x_("AYT_ESB_38080_38145",_"ESB_TZX_39240_39320")_ - 1 x_("AYT_ESB_38080_38145",_"ESB_HTY_38630_38710")_ - 1 x_("AYT_ESB_38080_38145",_"ESB_GNY_38380_38455")_ - 1 x_("AYT_ESB_38080_38145",_"ESB_YEI_38635_38695")_ - 1 x_("AYT_ESB_38080_38145",_"ESB_BAL_39265_39355")_ - 1 x_("AYT_ESB_38080_38145",_"ESB_ERC_39570_39650")_ - 1 x_("AYT_ESB_38080_38145",_"ESB_EZS_39555_39630")_ - 1 x_("AYT_ESB_38080_38145",_"ESB_ADB_38250_38330")_ - 1 x_("AYT_ESB_38080_38145",_"ESB_VAN_39325_39420")_ - 1 x_("AYT_ESB_38080_38145",_"ESB_ADA_38400_38460")_ = 0
mp_c2_ESB_MQM_38090_38185_: 1 x_("VAN_ESB_36575_36680",_"ESB_MQM_38090_38185")_ + 1 x_("MQM_ESB_36780_36875",_"ESB_MQM_38090_38185")_ + 1 x_("ERC_ESB_36805_36885",_"ESB_MQM_38090_38185")_ + 1 x_("SAW_ESB_36840_36900",_"ESB_MQM_38090_38185")_ + 1 x_("ADB_ESB_36925_37000",_"ESB_MQM_38090_38185")_ + 1 x_("GNY_ESB_37050_37130",_"ESB_MQM_38090_38185")_ + 1 x_("ECN_ESB_37055_37125",_"ESB_MQM_38090_38185")_ + 1 x_("ADA_ESB_37060_37125",_"ESB_MQM_38090_38185")_ + 1 x_("SZF_ESB_37075_37135",_"ESB_MQM_38090_38185")_ + 1 x_("ECN_ESB_37680_37750",_"ESB_MQM_38090_38185")_ + 1 x_("YEI_ESB_37680_37740",_"ESB_MQM_38090_38185")_ + 1 x_("MLX_ESB_37680_37755",_"ESB_MQM_38090_38185")_ + 1 x_("HTY_ESB_37680_37755",_"ESB_MQM_38090_38185")_ + 1 x_("SAW_ESB_37740_37800",_"ESB_MQM_38090_38185")_ + 1 x_("TZX_ESB_37915_37995",_"ESB_MQM_38090_38185")_ + 1 x_("SAW_ESB_37920_37980",_"ESB_MQM_38090_38185")_ + 1 x_("AJI_ESB_37940_38045",_"ESB_MQM_38090_38185")_ + 1 x_("BAL_ESB_37950_38045",_"ESB_MQM_38090_38185")_ - 1 x_("ESB_MQM_38090_38185",_"MQM_ESB_38220_38315")_ = 0
mp_c2_ESB_ECN_38100_38170_: 1 x_("VAN_ESB_36575_36680",_"ESB_ECN_38100_38170")_ + 1 x_("MQM_ESB_36780_36875",_"ESB_ECN_38100_38170")_ + 1 x_("ERC_ESB_36805_36885",_"ESB_ECN_38100_38170")_ + 1 x_("SAW_ESB_36840_36900",_"ESB_ECN_38100_38170")_ + 1 x_("ADB_ESB_36925_37000",_"ESB_ECN_38100_38170")_ + 1 x_("GNY_ESB_37050_37130",_"ESB_ECN_38100_38170")_ + 1 x_("ECN_ESB_37055_37125",_"ESB_ECN_38100_38170")_ + 1 x_("ADA_ESB_37060_37125",_"ESB_ECN_38100_38170")_ + 1 x_("SZF_ESB_37075_37135",_"ESB_ECN_38100_38170")_ + 1 x_("ECN_ESB_37680_37750",_"ESB_ECN_38100_38170")_ + 1 x_("YEI_ESB_37680_37740",_"ESB_ECN_38100_38170")_ + 1 x_("MLX_ESB_37680_37755",_"ESB_ECN_38100_38170")_ + 1 x_("HTY_ESB_37680_37755",_"ESB_ECN_38100_38170")_ + 1 x_("SAW_ESB_37740_37800",_"ESB_ECN_38100_38170")_ + 1 x_("TZX_ESB_37915_37995",_"ESB_ECN_38100_38170")_ + 1 x_("SAW_ESB_37920_37980",_"ESB_ECN_38100_38170")_ + 1 x_("AJI_ESB_37940_38045",_"ESB_ECN_38100_38170")_ + 1 x_("BAL_ESB_37950_38045",_"ESB_ECN_38100_38170")_ - 1 x_("ESB_ECN_38100_38170",_"ECN_HTY_38280_38345")_ - 1 x_("ESB_ECN_38100_38170",_"ECN_ESB_39120_39190")_ - 1 x_("ESB_ECN_38100_38170",_"ECN_ESB_38495_38565")_ = 0
mp_c2_ESB_ERC_38130_38210_: 1 x_("MQM_ESB_36780_36875",_"ESB_ERC_38130_38210")_ + 1 x_("ERC_ESB_36805_36885",_"ESB_ERC_38130_38210")_ + 1 x_("SAW_ESB_36840_36900",_"ESB_ERC_38130_38210")_ + 1 x_("ADB_ESB_36925_37000",_"ESB_ERC_38130_38210")_ + 1 x_("GNY_ESB_37050_37130",_"ESB_ERC_38130_38210")_ + 1 x_("ECN_ESB_37055_37125",_"ESB_ERC_38130_38210")_ + 1 x_("ADA_ESB_37060_37125",_"ESB_ERC_38130_38210")_ + 1 x_("SZF_ESB_37075_37135",_"ESB_ERC_38130_38210")_ + 1 x_("ECN_ESB_37680_37750",_"ESB_ERC_38130_38210")_ + 1 x_("YEI_ESB_37680_37740",_"ESB_ERC_38130_38210")_ + 1 x_("MLX_ESB_37680_37755",_"ESB_ERC_38130_38210")_ + 1 x_("HTY_ESB_37680_37755",_"ESB_ERC_38130_38210")_ + 1 x_("SAW_ESB_37740_37800",_"ESB_ERC_38130_38210")_ + 1 x_("TZX_ESB_37915_37995",_"ESB_ERC_38130_38210")_ + 1 x_("SAW_ESB_37920_37980",_"ESB_ERC_38130_38210")_ + 1 x_("AJI_ESB_37940_38045",_"ESB_ERC_38130_38210")_ + 1 x_("BAL_ESB_37950_38045",_"ESB_ERC_38130_38210")_ - 1 x_("ESB_ERC_38130_38210",_"ERC_ESB_38245_38325")_ = 0
mp_c2_SAW_VAS_38130_38210_: 1 x_("TZX_SAW_36600_36705",_"SAW_VAS_38130_38210")_ + 1 x_("ESB_SAW_36720_36780",_"SAW_VAS_38130_38210")_ + 1 x_("VAS_SAW_36805_36885",_"SAW_VAS_38130_38210")_ + 1 x_("AYT_SAW_36810_36875",_"SAW_VAS_38130_38210")_ + 1 x_("ADB_SAW_37025_37085",_"SAW_VAS_38130_38210")_ + 1 x_("ASR_SAW_37095_37185",_"SAW_VAS_38130_38210")_ + 1 x_("KYA_SAW_37095_37165",_"SAW_VAS_38130_38210")_ + 1 x_("ADB_SAW_37775_37835",_"SAW_VAS_38130_38210")_ + 1 x_("ESB_SAW_37800_37860",_"SAW_VAS_38130_38210")_ - 1 x_("SAW_VAS_38130_38210",_"VAS_SAW_38245_38325")_ = 0
mp_c2_SAW_AYT_38145_38210_: 1 x_("TZX_SAW_36600_36705",_"SAW_AYT_38145_38210")_ + 1 x_("ESB_SAW_36720_36780",_"SAW_AYT_38145_38210")_ + 1 x_("VAS_SAW_36805_36885",_"SAW_AYT_38145_38210")_ + 1 x_("AYT_SAW_36810_36875",_"SAW_AYT_38145_38210")_ + 1 x_("ADB_SAW_37025_37085",_"SAW_AYT_38145_38210")_ + 1 x_("ASR_SAW_37095_37185",_"SAW_AYT_38145_38210")_ + 1 x_("KYA_SAW_37095_37165",_"SAW_AYT_38145_38210")_ + 1 x_("ADB_SAW_37775_37835",_"SAW_AYT_38145_38210")_ + 1 x_("ESB_SAW_37800_37860",_"SAW_AYT_38145_38210")_ + 1 x_("ESB_SAW_38040_38100",_"SAW_AYT_38145_38210")_ - 1 x_("SAW_AYT_38145_38210",_"AYT_SAW_38250_38315")_ = 0
mp_c2_ESB_SAW_38160_38220_: 1 x_("MQM_ESB_36780_36875",_"ESB_SAW_38160_38220")_ + 1 x_("ERC_ESB_36805_36885",_"ESB_SAW_38160_38220")_ + 1 x_("SAW_ESB_36840_36900",_"ESB_SAW_38160_38220")_ + 1 x_("ADB_ESB_36925_37000",_"ESB_SAW_38160_38220")_ + 1 x_("GNY_ESB_37050_37130",_"ESB_SAW_38160_38220")_ + 1 x_("ECN_ESB_37055_37125",_"ESB_SAW_38160_38220")_ + 1 x_("ADA_ESB_37060_37125",_"ESB_SAW_38160_38220")_ + 1 x_("SZF_ESB_37075_37135",_"ESB_SAW_38160_38220")_ + 1 x_("ECN_ESB_37680_37750",_"ESB_SAW_38160_38220")_ + 1 x_("YEI_ESB_37680_37740",_"ESB_SAW_38160_38220")_ + 1 x_("MLX_ESB_37680_37755",_"ESB_SAW_38160_38220")_ + 1 x_("HTY_ESB_37680_37755",_"ESB_SAW_38160_38220")_ + 1 x_("SAW_ESB_37740_37800",_"ESB_SAW_38160_38220")_ + 1 x_("TZX_ESB_37915_37995",_"ESB_SAW_38160_38220")_ + 1 x_("SAW_ESB_37920_37980",_"ESB_SAW_38160_38220")_ + 1 x_("AJI_ESB_37940_38045",_"ESB_SAW_38160_38220")_ + 1 x_("BAL_ESB_37950_38045",_"ESB_SAW_38160_38220")_ + 1 x_("VAN_ESB_38015_38120",_"ESB_SAW_38160_38220")_ - 1 x_("ESB_SAW_38160_38220",_"SAW_ADB_39120_39180")_ - 1 x_("ESB_SAW_38160_38220",_"SAW_ESB_38280_38340")_ - 1 x_("ESB_SAW_38160_38220",_"SAW_ASR_38415_38500")_ - 1 x_("ESB_SAW_38160_38220",_"SAW_NAJ_39350_39490")_ - 1 x_("ESB_SAW_38160_38220",_"SAW_AYT_39585_39650")_ - 1 x_("ESB_SAW_38160_38220",_"SAW_ADB_38370_38430")_ - 1 x_("ESB_SAW_38160_38220",_"SAW_KYA_38430_38500")_ - 1 x_("ESB_SAW_38160_38220",_"SAW_TZX_39345_39445")_ - 1 x_("ESB_SAW_38160_38220",_"SAW_ESB_39360_39420")_ = 0
mp_c2_MQM_ESB_38220_38315_: 1 x_("ESB_MQM_38090_38185",_"MQM_ESB_38220_38315")_ - 1 x_("MQM_ESB_38220_38315",_"ESB_ADB_39690_39770")_ - 1 x_("MQM_ESB_38220_38315",_"ESB_SAW_39480_39540")_ - 1 x_("MQM_ESB_38220_38315",_"ESB_SZF_38420_38480")_ - 1 x_("MQM_ESB_38220_38315",_"ESB_ECN_38625_38695")_ - 1 x_("MQM_ESB_38220_38315",_"ESB_SAW_39600_39660")_ - 1 x_("MQM_ESB_38220_38315",_"ESB_MLX_38620_38695")_ - 1 x_("MQM_ESB_38220_38315",_"ESB_MQM_39530_39625")_ - 1 x_("MQM_ESB_38220_38315",_"ESB_TZX_39240_39320")_ - 1 x_("MQM_ESB_38220_38315",_"ESB_HTY_38630_38710")_ - 1 x_("MQM_ESB_38220_38315",_"ESB_GNY_38380_38455")_ - 1 x_("MQM_ESB_38220_38315",_"ESB_YEI_38635_38695")_ - 1 x_("MQM_ESB_38220_38315",_"ESB_BAL_39265_39355")_ - 1 x_("MQM_ESB_38220_38315",_"ESB_ERC_39570_39650")_ - 1 x_("MQM_ESB_38220_38315",_"ESB_EZS_39555_39630")_ - 1 x_("MQM_ESB_38220_38315",_"ESB_VAN_39325_39420")_ - 1 x_("MQM_ESB_38220_38315",_"ESB_ADA_38400_38460")_ = 0
mp_c2_ERC_ESB_38245_38325_: 1 x_("ESB_ERC_38130_38210",_"ERC_ESB_38245_38325")_ - 1 x_("ERC_ESB_38245_38325",_"ESB_ADB_39690_39770")_ - 1 x_("ERC_ESB_38245_38325",_"ESB_SAW_39480_39540")_ - 1 x_("ERC_ESB_38245_38325",_"ESB_SZF_38420_38480")_ - 1 x_("ERC_ESB_38245_38325",_"ESB_ECN_38625_38695")_ - 1 x_("ERC_ESB_38245_38325",_"ESB_SAW_39600_39660")_ - 1 x_("ERC_ESB_38245_38325",_"ESB_MLX_38620_38695")_ - 1 x_("ERC_ESB_38245_38325",_"ESB_MQM_39530_39625")_ - 1 x_("ERC_ESB_38245_38325",_"ESB_TZX_39240_39320")_ - 1 x_("ERC_ESB_38245_38325",_"ESB_HTY_38630_38710")_ - 1 x_("ERC_ESB_38245_38325",_"ESB_GNY_38380_38455")_ - 1 x_("ERC_ESB_38245_38325",_"ESB_YEI_38635_38695")_ - 1 x_("ERC_ESB_38245_38325",_"ESB_BAL_39265_39355")_ - 1 x_("ERC_ESB_38245_38325",_"ESB_ERC_39570_39650")_ - 1 x_("ERC_ESB_38245_38325",_"ESB_EZS_39555_39630")_ - 1 x_("ERC_ESB_38245_38325",_"ESB_VAN_39325_39420")_ - 1 x_("ERC_ESB_38245_38325",_"ESB_ADA_38400_38460")_ = 0
mp_c2_VAS_SAW_38245_38325_: 1 x_("SAW_VAS_38130_38210",_"VAS_SAW_38245_38325")_ - 1 x_("VAS_SAW_38245_38325",_"SAW_ADB_39120_39180")_ - 1 x_("VAS_SAW_38245_38325",_"SAW_ASR_38415_38500")_ - 1 x_("VAS_SAW_38245_38325",_"SAW_NAJ_39350_39490")_ - 1 x_("VAS_SAW_38245_38325",_"SAW_AYT_39585_39650")_ - 1 x_("VAS_SAW_38245_38325",_"SAW_ESB_39720_39780")_ - 1 x_("VAS_SAW_38245_38325",_"SAW_ADB_38370_38430")_ - 1 x_("VAS_SAW_38245_38325",_"SAW_KYA_38430_38500")_ - 1 x_("VAS_SAW_38245_38325",_"SAW_TZX_39345_39445")_ - 1 x_("VAS_SAW_38245_38325",_"SAW_ESB_39360_39420")_ = 0
mp_c2_ESB_ADB_38250_38330_: 1 x_("MQM_ESB_36780_36875",_"ESB_ADB_38250_38330")_ + 1 x_("ERC_ESB_36805_36885",_"ESB_ADB_38250_38330")_ + 1 x_("SAW_ESB_36840_36900",_"ESB_ADB_38250_38330")_ + 1 x_("ADB_ESB_36925_37000",_"ESB_ADB_38250_38330")_ + 1 x_("GNY_ESB_37050_37130",_"ESB_ADB_38250_38330")_ + 1 x_("ECN_ESB_37055_37125",_"ESB_ADB_38250_38330")_ + 1 x_("ADA_ESB_37060_37125",_"ESB_ADB_38250_38330")_ + 1 x_("SZF_ESB_37075_37135",_"ESB_ADB_38250_38330")_ + 1 x_("ECN_ESB_37680_37750",_"ESB_ADB_38250_38330")_ + 1 x_("YEI_ESB_37680_37740",_"ESB_ADB_38250_38330")_ + 1 x_("MLX_ESB_37680_37755",_"ESB_ADB_38250_38330")_ + 1 x_("HTY_ESB_37680_37755",_"ESB_ADB_38250_38330")_ + 1 x_("SAW_ESB_37740_37800",_"ESB_ADB_38250_38330")_ + 1 x_("TZX_ESB_37915_37995",_"ESB_ADB_38250_38330")_ + 1 x_("SAW_ESB_37920_37980",_"ESB_ADB_38250_38330")_ + 1 x_("AJI_ESB_37940_38045",_"ESB_ADB_38250_38330")_ + 1 x_("BAL_ESB_37950_38045",_"ESB_ADB_38250_38330")_ + 1 x_("VAN_ESB_38015_38120",_"ESB_ADB_38250_38330")_ + 1 x_("AYT_ESB_38080_38145",_"ESB_ADB_38250_38330")_ - 1 x_("ESB_ADB_38250_38330",_"ADB_ESB_38365_38440")_ - 1 x_("ESB_ADB_38250_38330",_"ADB_SAW_39215_39275")_ - 1 x_("ESB_ADB_38250_38330",_"ADB_SAW_38465_38525")_ = 0
mp_c2_AYT_SAW_38250_38315_: 1 x_("ESB_AYT_37980_38045",_"AYT_SAW_38250_38315")_ + 1 x_("SAW_AYT_38145_38210",_"AYT_SAW_38250_38315")_ - 1 x_("AYT_SAW_38250_38315",_"SAW_ADB_39120_39180")_ - 1 x_("AYT_SAW_38250_38315",_"SAW_ASR_38415_38500")_ - 1 x_("AYT_SAW_38250_38315",_"SAW_NAJ_39350_39490")_ - 1 x_("AYT_SAW_38250_38315",_"SAW_AYT_39585_39650")_ - 1 x_("AYT_SAW_38250_38315",_"SAW_ESB_39720_39780")_ - 1 x_("AYT_SAW_38250_38315",_"SAW_ADB_38370_38430")_ - 1 x_("AYT_SAW_38250_38315",_"SAW_KYA_38430_38500")_ - 1 x_("AYT_SAW_38250_38315",_"SAW_TZX_39345_39445")_ - 1 x_("AYT_SAW_38250_38315",_"SAW_ESB_39360_39420")_ = 0
mp_c2_SAW_ESB_38280_38340_: 1 x_("VAS_SAW_36805_36885",_"SAW_ESB_38280_38340")_ + 1 x_("AYT_SAW_36810_36875",_"SAW_ESB_38280_38340")_ + 1 x_("ADB_SAW_37025_37085",_"SAW_ESB_38280_38340")_ + 1 x_("ASR_SAW_37095_37185",_"SAW_ESB_38280_38340")_ + 1 x_("KYA_SAW_37095_37165",_"SAW_ESB_38280_38340")_ + 1 x_("ADB_SAW_37775_37835",_"SAW_ESB_38280_38340")_ + 1 x_("ESB_SAW_37800_37860",_"SAW_ESB_38280_38340")_ + 1 x_("TZX_SAW_38040_38145",_"SAW_ESB_38280_38340")_ + 1 x_("ESB_SAW_38040_38100",_"SAW_ESB_38280_38340")_ + 1 x_("ESB_SAW_38160_38220",_"SAW_ESB_38280_38340")_ - 1 x_("SAW_ESB_38280_38340",_"ESB_ADB_39690_39770")_ - 1 x_("SAW_ESB_38280_38340",_"ESB_SAW_39480_39540")_ - 1 x_("SAW_ESB_38280_38340",_"ESB_SZF_38420_38480")_ - 1 x_("SAW_ESB_38280_38340",_"ESB_ECN_38625_38695")_ - 1 x_("SAW_ESB_38280_38340",_"ESB_SAW_39600_39660")_ - 1 x_("SAW_ESB_38280_38340",_"ESB_MLX_38620_38695")_ - 1 x_("SAW_ESB_38280_38340",_"ESB_MQM_39530_39625")_ - 1 x_("SAW_ESB_38280_38340",_"ESB_TZX_39240_39320")_ - 1 x_("SAW_ESB_38280_38340",_"ESB_HTY_38630_38710")_ - 1 x_("SAW_ESB_38280_38340",_"ESB_GNY_38380_38455")_ - 1 x_("SAW_ESB_38280_38340",_"ESB_YEI_38635_38695")_ - 1 x_("SAW_ESB_38280_38340",_"ESB_BAL_39265_39355")_ - 1 x_("SAW_ESB_38280_38340",_"ESB_ERC_39570_39650")_ - 1 x_("SAW_ESB_38280_38340",_"ESB_EZS_39555_39630")_ - 1 x_("SAW_ESB_38280_38340",_"ESB_VAN_39325_39420")_ - 1 x_("SAW_ESB_38280_38340",_"ESB_ADA_38400_38460")_ = 0
mp_c2_ECN_HTY_38280_38345_: 1 x_("HTY_ECN_36945_37010",_"ECN_HTY_38280_38345")_ + 1 x_("ESB_ECN_37185_37255",_"ECN_HTY_38280_38345")_ + 1 x_("ESB_ECN_38100_38170",_"ECN_HTY_38280_38345")_ - 1 x_("ECN_HTY_38280_38345",_"HTY_ESB_39120_39195")_ - 1 x_("ECN_HTY_38280_38345",_"HTY_ECN_38385_38450")_ = 0
mp_c2_ADB_ESB_38365_38440_: 1 x_("SAW_ADB_36930_36990",_"ADB_ESB_38365_38440")_ + 1 x_("SAW_ADB_37680_37740",_"ADB_ESB_38365_38440")_ + 1 x_("ESB_ADB_38250_38330",_"ADB_ESB_38365_38440")_ - 1 x_("ADB_ESB_38365_38440",_"ESB_ADB_39690_39770")_ - 1 x_("ADB_ESB_38365_38440",_"ESB_SAW_39480_39540")_ - 1 x_("ADB_ESB_38365_38440",_"ESB_ECN_38625_38695")_ - 1 x_("ADB_ESB_38365_38440",_"ESB_SAW_39600_39660")_ - 1 x_("ADB_ESB_38365_38440",_"ESB_ADA_39840_39900")_ - 1 x_("ADB_ESB_38365_38440",_"ESB_MLX_38620_38695")_ - 1 x_("ADB_ESB_38365_38440",_"ESB_MQM_39530_39625")_ - 1 x_("ADB_ESB_38365_38440",_"ESB_TZX_39240_39320")_ - 1 x_("ADB_ESB_38365_38440",_"ESB_HTY_38630_38710")_ - 1 x_("ADB_ESB_38365_38440",_"ESB_YEI_38635_38695")_ - 1 x_("ADB_ESB_38365_38440",_"ESB_GNY_39820_39895")_ - 1 x_("ADB_ESB_38365_38440",_"ESB_BAL_39265_39355")_ - 1 x_("ADB_ESB_38365_38440",_"ESB_ERC_39570_39650")_ - 1 x_("ADB_ESB_38365_38440",_"ESB_EZS_39555_39630")_ - 1 x_("ADB_ESB_38365_38440",_"ESB_VAN_39325_39420")_ - 1 x_("ADB_ESB_38365_38440",_"ESB_SZF_39860_39920")_ = 0
mp_c2_SAW_ADB_38370_38430_: 1 x_("ADB_SAW_37025_37085",_"SAW_ADB_38370_38430")_ + 1 x_("ASR_SAW_37095_37185",_"SAW_ADB_38370_38430")_ + 1 x_("KYA_SAW_37095_37165",_"SAW_ADB_38370_38430")_ + 1 x_("ADB_SAW_37775_37835",_"SAW_ADB_38370_38430")_ + 1 x_("ESB_SAW_37800_37860",_"SAW_ADB_38370_38430")_ + 1 x_("TZX_SAW_38040_38145",_"SAW_ADB_38370_38430")_ + 1 x_("ESB_SAW_38040_38100",_"SAW_ADB_38370_38430")_ + 1 x_("ESB_SAW_38160_38220",_"SAW_ADB_38370_38430")_ + 1 x_("VAS_SAW_38245_38325",_"SAW_ADB_38370_38430")_ + 1 x_("AYT_SAW_38250_38315",_"SAW_ADB_38370_38430")_ - 1 x_("SAW_ADB_38370_38430",_"ADB_ESB_39805_39880")_ - 1 x_("SAW_ADB_38370_38430",_"ADB_SAW_39215_39275")_ - 1 x_("SAW_ADB_38370_38430",_"ADB_SAW_38465_38525")_ = 0
mp_c2_ESB_GNY_38380_38455_: 1 x_("ADB_ESB_36925_37000",_"ESB_GNY_38380_38455")_ + 1 x_("GNY_ESB_37050_37130",_"ESB_GNY_38380_38455")_ + 1 x_("ECN_ESB_37055_37125",_"ESB_GNY_38380_38455")_ + 1 x_("ADA_ESB_37060_37125",_"ESB_GNY_38380_38455")_ + 1 x_("SZF_ESB_37075_37135",_"ESB_GNY_38380_38455")_ + 1 x_("ECN_ESB_37680_37750",_"ESB_GNY_38380_38455")_ + 1 x_("YEI_ESB_37680_37740",_"ESB_GNY_38380_38455")_ + 1 x_("MLX_ESB_37680_37755",_"ESB_GNY_38380_38455")_ + 1 x_("HTY_ESB_37680_37755",_"ESB_GNY_38380_38455")_ + 1 x_("SAW_ESB_37740_37800",_"ESB_GNY_38380_38455")_ + 1 x_("TZX_ESB_37915_37995",_"ESB_GNY_38380_38455")_ + 1 x_("SAW_ESB_37920_37980",_"ESB_GNY_38380_38455")_ + 1 x_("AJI_ESB_37940_38045",_"ESB_GNY_38380_38455")_ + 1 x_("BAL_ESB_37950_38045",_"ESB_GNY_38380_38455")_ + 1 x_("VAN_ESB_38015_38120",_"ESB_GNY_38380_38455")_ + 1 x_("AYT_ESB_38080_38145",_"ESB_GNY_38380_38455")_ + 1 x_("MQM_ESB_38220_38315",_"ESB_GNY_38380_38455")_ + 1 x_("ERC_ESB_38245_38325",_"ESB_GNY_38380_38455")_ + 1 x_("SAW_ESB_38280_38340",_"ESB_GNY_38380_38455")_ - 1 x_("ESB_GNY_38380_38455",_"GNY_ESB_38490_38570")_ = 0
mp_c2_HTY_ECN_38385_38450_: 1 x_("ESB_HTY_37190_37270",_"HTY_ECN_38385_38450")_ + 1 x_("ECN_HTY_38280_38345",_"HTY_ECN_38385_38450")_ - 1 x_("HTY_ECN_38385_38450",_"ECN_ESB_39120_39190")_ - 1 x_("HTY_ECN_38385_38450",_"ECN_ESB_38495_38565")_ = 0
mp_c2_ESB_ADA_38400_38460_: 1 x_("ADB_ESB_36925_37000",_"ESB_ADA_38400_38460")_ + 1 x_("GNY_ESB_37050_37130",_"ESB_ADA_38400_38460")_ + 1 x_("ECN_ESB_37055_37125",_"ESB_ADA_38400_38460")_ + 1 x_("ADA_ESB_37060_37125",_"ESB_ADA_38400_38460")_ + 1 x_("SZF_ESB_37075_37135",_"ESB_ADA_38400_38460")_ + 1 x_("ECN_ESB_37680_37750",_"ESB_ADA_38400_38460")_ + 1 x_("YEI_ESB_37680_37740",_"ESB_ADA_38400_38460")_ + 1 x_("MLX_ESB_37680_37755",_"ESB_ADA_38400_38460")_ + 1 x_("HTY_ESB_37680_37755",_"ESB_ADA_38400_38460")_ + 1 x_("SAW_ESB_37740_37800",_"ESB_ADA_38400_38460")_ + 1 x_("TZX_ESB_37915_37995",_"ESB_ADA_38400_38460")_ + 1 x_("SAW_ESB_37920_37980",_"ESB_ADA_38400_38460")_ + 1 x_("AJI_ESB_37940_38045",_"ESB_ADA_38400_38460")_ + 1 x_("BAL_ESB_37950_38045",_"ESB_ADA_38400_38460")_ + 1 x_("VAN_ESB_38015_38120",_"ESB_ADA_38400_38460")_ + 1 x_("AYT_ESB_38080_38145",_"ESB_ADA_38400_38460")_ + 1 x_("MQM_ESB_38220_38315",_"ESB_ADA_38400_38460")_ + 1 x_("ERC_ESB_38245_38325",_"ESB_ADA_38400_38460")_ + 1 x_("SAW_ESB_38280_38340",_"ESB_ADA_38400_38460")_ - 1 x_("ESB_ADA_38400_38460",_"ADA_ESB_38500_38565")_ = 0
mp_c2_SAW_ASR_38415_38500_: 1 x_("ADB_SAW_37025_37085",_"SAW_ASR_38415_38500")_ + 1 x_("ASR_SAW_37095_37185",_"SAW_ASR_38415_38500")_ + 1 x_("KYA_SAW_37095_37165",_"SAW_ASR_38415_38500")_ + 1 x_("ADB_SAW_37775_37835",_"SAW_ASR_38415_38500")_ + 1 x_("ESB_SAW_37800_37860",_"SAW_ASR_38415_38500")_ + 1 x_("TZX_SAW_38040_38145",_"SAW_ASR_38415_38500")_ + 1 x_("ESB_SAW_38040_38100",_"SAW_ASR_38415_38500")_ + 1 x_("ESB_SAW_38160_38220",_"SAW_ASR_38415_38500")_ + 1 x_("VAS_SAW_38245_38325",_"SAW_ASR_38415_38500")_ + 1 x_("AYT_SAW_38250_38315",_"SAW_ASR_38415_38500")_ - 1 x_("SAW_ASR_38415_38500",_"ASR_SAW_38535_38625")_ = 0
mp_c2_ESB_SZF_38420_38480_: 1 x_("ADB_ESB_36925_37000",_"ESB_SZF_38420_38480")_ + 1 x_("GNY_ESB_37050_37130",_"ESB_SZF_38420_38480")_ + 1 x_("ECN_ESB_37055_37125",_"ESB_SZF_38420_38480")_ + 1 x_("ADA_ESB_37060_37125",_"ESB_SZF_38420_38480")_ + 1 x_("SZF_ESB_37075_37135",_"ESB_SZF_38420_38480")_ + 1 x_("ECN_ESB_37680_37750",_"ESB_SZF_38420_38480")_ + 1 x_("YEI_ESB_37680_37740",_"ESB_SZF_38420_38480")_ + 1 x_("MLX_ESB_37680_37755",_"ESB_SZF_38420_38480")_ + 1 x_("HTY_ESB_37680_37755",_"ESB_SZF_38420_38480")_ + 1 x_("SAW_ESB_37740_37800",_"ESB_SZF_38420_38480")_ + 1 x_("TZX_ESB_37915_37995",_"ESB_SZF_38420_38480")_ + 1 x_("SAW_ESB_37920_37980",_"ESB_SZF_38420_38480")_ + 1 x_("AJI_ESB_37940_38045",_"ESB_SZF_38420_38480")_ + 1 x_("BAL_ESB_37950_38045",_"ESB_SZF_38420_38480")_ + 1 x_("VAN_ESB_38015_38120",_"ESB_SZF_38420_38480")_ + 1 x_("AYT_ESB_38080_38145",_"ESB_SZF_38420_38480")_ + 1 x_("MQM_ESB_38220_38315",_"ESB_SZF_38420_38480")_ + 1 x_("ERC_ESB_38245_38325",_"ESB_SZF_38420_38480")_ + 1 x_("SAW_ESB_38280_38340",_"ESB_SZF_38420_38480")_ - 1 x_("ESB_SZF_38420_38480",_"SZF_ESB_38515_38575")_ = 0
mp_c2_SAW_KYA_38430_38500_: 1 x_("ADB_SAW_37025_37085",_"SAW_KYA_38430_38500")_ + 1 x_("ASR_SAW_37095_37185",_"SAW_KYA_38430_38500")_ + 1 x_("KYA_SAW_37095_37165",_"SAW_KYA_38430_38500")_ + 1 x_("ADB_SAW_37775_37835",_"SAW_KYA_38430_38500")_ + 1 x_("ESB_SAW_37800_37860",_"SAW_KYA_38430_38500")_ + 1 x_("TZX_SAW_38040_38145",_"SAW_KYA_38430_38500")_ + 1 x_("ESB_SAW_38040_38100",_"SAW_KYA_38430_38500")_ + 1 x_("ESB_SAW_38160_38220",_"SAW_KYA_38430_38500")_ + 1 x_("VAS_SAW_38245_38325",_"SAW_KYA_38430_38500")_ + 1 x_("AYT_SAW_38250_38315",_"SAW_KYA_38430_38500")_ - 1 x_("SAW_KYA_38430_38500",_"KYA_SAW_38535_38605")_ = 0
mp_c2_ADB_SAW_38465_38525_: 1 x_("SAW_ADB_37680_37740",_"ADB_SAW_38465_38525")_ + 1 x_("ESB_ADB_38250_38330",_"ADB_SAW_38465_38525")_ + 1 x_("SAW_ADB_38370_38430",_"ADB_SAW_38465_38525")_ - 1 x_("ADB_SAW_38465_38525",_"SAW_ADB_39120_39180")_ - 1 x_("ADB_SAW_38465_38525",_"SAW_ASR_39855_39940")_ - 1 x_("ADB_SAW_38465_38525",_"SAW_ADB_39810_39870")_ - 1 x_("ADB_SAW_38465_38525",_"SAW_NAJ_39350_39490")_ - 1 x_("ADB_SAW_38465_38525",_"SAW_AYT_39585_39650")_ - 1 x_("ADB_SAW_38465_38525",_"SAW_ESB_39720_39780")_ - 1 x_("ADB_SAW_38465_38525",_"SAW_TZX_39345_39445")_ - 1 x_("ADB_SAW_38465_38525",_"SAW_ESB_39360_39420")_ = 0
mp_c2_GNY_ESB_38490_38570_: 1 x_("ESB_GNY_38380_38455",_"GNY_ESB_38490_38570")_ - 1 x_("GNY_ESB_38490_38570",_"ESB_ADB_39690_39770")_ - 1 x_("GNY_ESB_38490_38570",_"ESB_SAW_39480_39540")_ - 1 x_("GNY_ESB_38490_38570",_"ESB_ECN_38625_38695")_ - 1 x_("GNY_ESB_38490_38570",_"ESB_SAW_39600_39660")_ - 1 x_("GNY_ESB_38490_38570",_"ESB_ADA_39840_39900")_ - 1 x_("GNY_ESB_38490_38570",_"ESB_MLX_38620_38695")_ - 1 x_("GNY_ESB_38490_38570",_"ESB_MQM_39530_39625")_ - 1 x_("GNY_ESB_38490_38570",_"ESB_TZX_39240_39320")_ - 1 x_("GNY_ESB_38490_38570",_"ESB_HTY_38630_38710")_ - 1 x_("GNY_ESB_38490_38570",_"ESB_YEI_38635_38695")_ - 1 x_("GNY_ESB_38490_38570",_"ESB_GNY_39820_39895")_ - 1 x_("GNY_ESB_38490_38570",_"ESB_BAL_39265_39355")_ - 1 x_("GNY_ESB_38490_38570",_"ESB_ERC_39570_39650")_ - 1 x_("GNY_ESB_38490_38570",_"ESB_EZS_39555_39630")_ - 1 x_("GNY_ESB_38490_38570",_"ESB_VAN_39325_39420")_ - 1 x_("GNY_ESB_38490_38570",_"ESB_SZF_39860_39920")_ = 0
mp_c2_ECN_ESB_38495_38565_: 1 x_("ESB_ECN_37185_37255",_"ECN_ESB_38495_38565")_ + 1 x_("ESB_ECN_38100_38170",_"ECN_ESB_38495_38565")_ + 1 x_("HTY_ECN_38385_38450",_"ECN_ESB_38495_38565")_ - 1 x_("ECN_ESB_38495_38565",_"ESB_ADB_39690_39770")_ - 1 x_("ECN_ESB_38495_38565",_"ESB_SAW_39480_39540")_ - 1 x_("ECN_ESB_38495_38565",_"ESB_ECN_38625_38695")_ - 1 x_("ECN_ESB_38495_38565",_"ESB_SAW_39600_39660")_ - 1 x_("ECN_ESB_38495_38565",_"ESB_ADA_39840_39900")_ - 1 x_("ECN_ESB_38495_38565",_"ESB_MLX_38620_38695")_ - 1 x_("ECN_ESB_38495_38565",_"ESB_MQM_39530_39625")_ - 1 x_("ECN_ESB_38495_38565",_"ESB_TZX_39240_39320")_ - 1 x_("ECN_ESB_38495_38565",_"ESB_HTY_38630_38710")_ - 1 x_("ECN_ESB_38495_38565",_"ESB_YEI_38635_38695")_ - 1 x_("ECN_ESB_38495_38565",_"ESB_GNY_39820_39895")_ - 1 x_("ECN_ESB_38495_38565",_"ESB_BAL_39265_39355")_ - 1 x_("ECN_ESB_38495_38565",_"ESB_ERC_39570_39650")_ - 1 x_("ECN_ESB_38495_38565",_"ESB_EZS_39555_39630")_ - 1 x_("ECN_ESB_38495_38565",_"ESB_VAN_39325_39420")_ - 1 x_("ECN_ESB_38495_38565",_"ESB_SZF_39860_39920")_ = 0
mp_c2_ADA_ESB_38500_38565_: 1 x_("ESB_ADA_38400_38460",_"ADA_ESB_38500_38565")_ - 1 x_("ADA_ESB_38500_38565",_"ESB_ADB_39690_39770")_ - 1 x_("ADA_ESB_38500_38565",_"ESB_SAW_39480_39540")_ - 1 x_("ADA_ESB_38500_38565",_"ESB_ECN_38625_38695")_ - 1 x_("ADA_ESB_38500_38565",_"ESB_SAW_39600_39660")_ - 1 x_("ADA_ESB_38500_38565",_"ESB_ADA_39840_39900")_ - 1 x_("ADA_ESB_38500_38565",_"ESB_MLX_38620_38695")_ - 1 x_("ADA_ESB_38500_38565",_"ESB_MQM_39530_39625")_ - 1 x_("ADA_ESB_38500_38565",_"ESB_TZX_39240_39320")_ - 1 x_("ADA_ESB_38500_38565",_"ESB_HTY_38630_38710")_ - 1 x_("ADA_ESB_38500_38565",_"ESB_YEI_38635_38695")_ - 1 x_("ADA_ESB_38500_38565",_"ESB_GNY_39820_39895")_ - 1 x_("ADA_ESB_38500_38565",_"ESB_BAL_39265_39355")_ - 1 x_("ADA_ESB_38500_38565",_"ESB_ERC_39570_39650")_ - 1 x_("ADA_ESB_38500_38565",_"ESB_EZS_39555_39630")_ - 1 x_("ADA_ESB_38500_38565",_"ESB_VAN_39325_39420")_ - 1 x_("ADA_ESB_38500_38565",_"ESB_SZF_39860_39920")_ = 0
mp_c2_SZF_ESB_38515_38575_: 1 x_("ESB_SZF_38420_38480",_"SZF_ESB_38515_38575")_ - 1 x_("SZF_ESB_38515_38575",_"ESB_ADB_39690_39770")_ - 1 x_("SZF_ESB_38515_38575",_"ESB_SAW_39480_39540")_ - 1 x_("SZF_ESB_38515_38575",_"ESB_ECN_38625_38695")_ - 1 x_("SZF_ESB_38515_38575",_"ESB_SAW_39600_39660")_ - 1 x_("SZF_ESB_38515_38575",_"ESB_ADA_39840_39900")_ - 1 x_("SZF_ESB_38515_38575",_"ESB_MLX_38620_38695")_ - 1 x_("SZF_ESB_38515_38575",_"ESB_MQM_39530_39625")_ - 1 x_("SZF_ESB_38515_38575",_"ESB_TZX_39240_39320")_ - 1 x_("SZF_ESB_38515_38575",_"ESB_HTY_38630_38710")_ - 1 x_("SZF_ESB_38515_38575",_"ESB_YEI_38635_38695")_ - 1 x_("SZF_ESB_38515_38575",_"ESB_GNY_39820_39895")_ - 1 x_("SZF_ESB_38515_38575",_"ESB_BAL_39265_39355")_ - 1 x_("SZF_ESB_38515_38575",_"ESB_ERC_39570_39650")_ - 1 x_("SZF_ESB_38515_38575",_"ESB_EZS_39555_39630")_ - 1 x_("SZF_ESB_38515_38575",_"ESB_VAN_39325_39420")_ - 1 x_("SZF_ESB_38515_38575",_"ESB_SZF_39860_39920")_ = 0
mp_c2_ASR_SAW_38535_38625_: 1 x_("SAW_ASR_38415_38500",_"ASR_SAW_38535_38625")_ - 1 x_("ASR_SAW_38535_38625",_"SAW_ADB_39120_39180")_ - 1 x_("ASR_SAW_38535_38625",_"SAW_ASR_39855_39940")_ - 1 x_("ASR_SAW_38535_38625",_"SAW_ADB_39810_39870")_ - 1 x_("ASR_SAW_38535_38625",_"SAW_NAJ_39350_39490")_ - 1 x_("ASR_SAW_38535_38625",_"SAW_AYT_39585_39650")_ - 1 x_("ASR_SAW_38535_38625",_"SAW_ESB_39720_39780")_ - 1 x_("ASR_SAW_38535_38625",_"SAW_TZX_39345_39445")_ - 1 x_("ASR_SAW_38535_38625",_"SAW_ESB_39360_39420")_ = 0
mp_c2_KYA_SAW_38535_38605_: 1 x_("SAW_KYA_38430_38500",_"KYA_SAW_38535_38605")_ - 1 x_("KYA_SAW_38535_38605",_"SAW_ADB_39120_39180")_ - 1 x_("KYA_SAW_38535_38605",_"SAW_ASR_39855_39940")_ - 1 x_("KYA_SAW_38535_38605",_"SAW_ADB_39810_39870")_ - 1 x_("KYA_SAW_38535_38605",_"SAW_NAJ_39350_39490")_ - 1 x_("KYA_SAW_38535_38605",_"SAW_AYT_39585_39650")_ - 1 x_("KYA_SAW_38535_38605",_"SAW_ESB_39720_39780")_ - 1 x_("KYA_SAW_38535_38605",_"SAW_TZX_39345_39445")_ - 1 x_("KYA_SAW_38535_38605",_"SAW_ESB_39360_39420")_ = 0
mp_c2_ESB_MLX_38620_38695_: 1 x_("ECN_ESB_37680_37750",_"ESB_MLX_38620_38695")_ + 1 x_("YEI_ESB_37680_37740",_"ESB_MLX_38620_38695")_ + 1 x_("MLX_ESB_37680_37755",_"ESB_MLX_38620_38695")_ + 1 x_("HTY_ESB_37680_37755",_"ESB_MLX_38620_38695")_ + 1 x_("SAW_ESB_37740_37800",_"ESB_MLX_38620_38695")_ + 1 x_("TZX_ESB_37915_37995",_"ESB_MLX_38620_38695")_ + 1 x_("SAW_ESB_37920_37980",_"ESB_MLX_38620_38695")_ + 1 x_("AJI_ESB_37940_38045",_"ESB_MLX_38620_38695")_ + 1 x_("BAL_ESB_37950_38045",_"ESB_MLX_38620_38695")_ + 1 x_("VAN_ESB_38015_38120",_"ESB_MLX_38620_38695")_ + 1 x_("AYT_ESB_38080_38145",_"ESB_MLX_38620_38695")_ + 1 x_("MQM_ESB_38220_38315",_"ESB_MLX_38620_38695")_ + 1 x_("ERC_ESB_38245_38325",_"ESB_MLX_38620_38695")_ + 1 x_("SAW_ESB_38280_38340",_"ESB_MLX_38620_38695")_ + 1 x_("ADB_ESB_38365_38440",_"ESB_MLX_38620_38695")_ + 1 x_("GNY_ESB_38490_38570",_"ESB_MLX_38620_38695")_ + 1 x_("ECN_ESB_38495_38565",_"ESB_MLX_38620_38695")_ + 1 x_("ADA_ESB_38500_38565",_"ESB_MLX_38620_38695")_ + 1 x_("SZF_ESB_38515_38575",_"ESB_MLX_38620_38695")_ - 1 x_("ESB_MLX_38620_38695",_"MLX_ESB_39120_39195")_ = 0
mp_c2_ESB_ECN_38625_38695_: 1 x_("ECN_ESB_37680_37750",_"ESB_ECN_38625_38695")_ + 1 x_("YEI_ESB_37680_37740",_"ESB_ECN_38625_38695")_ + 1 x_("MLX_ESB_37680_37755",_"ESB_ECN_38625_38695")_ + 1 x_("HTY_ESB_37680_37755",_"ESB_ECN_38625_38695")_ + 1 x_("SAW_ESB_37740_37800",_"ESB_ECN_38625_38695")_ + 1 x_("TZX_ESB_37915_37995",_"ESB_ECN_38625_38695")_ + 1 x_("SAW_ESB_37920_37980",_"ESB_ECN_38625_38695")_ + 1 x_("AJI_ESB_37940_38045",_"ESB_ECN_38625_38695")_ + 1 x_("BAL_ESB_37950_38045",_"ESB_ECN_38625_38695")_ + 1 x_("VAN_ESB_38015_38120",_"ESB_ECN_38625_38695")_ + 1 x_("AYT_ESB_38080_38145",_"ESB_ECN_38625_38695")_ + 1 x_("MQM_ESB_38220_38315",_"ESB_ECN_38625_38695")_ + 1 x_("ERC_ESB_38245_38325",_"ESB_ECN_38625_38695")_ + 1 x_("SAW_ESB_38280_38340",_"ESB_ECN_38625_38695")_ + 1 x_("ADB_ESB_38365_38440",_"ESB_ECN_38625_38695")_ + 1 x_("GNY_ESB_38490_38570",_"ESB_ECN_38625_38695")_ + 1 x_("ECN_ESB_38495_38565",_"ESB_ECN_38625_38695")_ + 1 x_("ADA_ESB_38500_38565",_"ESB_ECN_38625_38695")_ + 1 x_("SZF_ESB_38515_38575",_"ESB_ECN_38625_38695")_ - 1 x_("ESB_ECN_38625_38695",_"ECN_ESB_39120_39190")_ = 0
mp_c2_ESB_HTY_38630_38710_: 1 x_("ECN_ESB_37680_37750",_"ESB_HTY_38630_38710")_ + 1 x_("YEI_ESB_37680_37740",_"ESB_HTY_38630_38710")_ + 1 x_("MLX_ESB_37680_37755",_"ESB_HTY_38630_38710")_ + 1 x_("HTY_ESB_37680_37755",_"ESB_HTY_38630_38710")_ + 1 x_("SAW_ESB_37740_37800",_"ESB_HTY_38630_38710")_ + 1 x_("TZX_ESB_37915_37995",_"ESB_HTY_38630_38710")_ + 1 x_("SAW_ESB_37920_37980",_"ESB_HTY_38630_38710")_ + 1 x_("AJI_ESB_37940_38045",_"ESB_HTY_38630_38710")_ + 1 x_("BAL_ESB_37950_38045",_"ESB_HTY_38630_38710")_ + 1 x_("VAN_ESB_38015_38120",_"ESB_HTY_38630_38710")_ + 1 x_("AYT_ESB_38080_38145",_"ESB_HTY_38630_38710")_ + 1 x_("MQM_ESB_38220_38315",_"ESB_HTY_38630_38710")_ + 1 x_("ERC_ESB_38245_38325",_"ESB_HTY_38630_38710")_ + 1 x_("SAW_ESB_38280_38340",_"ESB_HTY_38630_38710")_ + 1 x_("ADB_ESB_38365_38440",_"ESB_HTY_38630_38710")_ + 1 x_("GNY_ESB_38490_38570",_"ESB_HTY_38630_38710")_ + 1 x_("ECN_ESB_38495_38565",_"ESB_HTY_38630_38710")_ + 1 x_("ADA_ESB_38500_38565",_"ESB_HTY_38630_38710")_ + 1 x_("SZF_ESB_38515_38575",_"ESB_HTY_38630_38710")_ - 1 x_("ESB_HTY_38630_38710",_"HTY_ESB_39120_39195")_ = 0
mp_c2_ESB_YEI_38635_38695_: 1 x_("ECN_ESB_37680_37750",_"ESB_YEI_38635_38695")_ + 1 x_("YEI_ESB_37680_37740",_"ESB_YEI_38635_38695")_ + 1 x_("MLX_ESB_37680_37755",_"ESB_YEI_38635_38695")_ + 1 x_("HTY_ESB_37680_37755",_"ESB_YEI_38635_38695")_ + 1 x_("SAW_ESB_37740_37800",_"ESB_YEI_38635_38695")_ + 1 x_("TZX_ESB_37915_37995",_"ESB_YEI_38635_38695")_ + 1 x_("SAW_ESB_37920_37980",_"ESB_YEI_38635_38695")_ + 1 x_("AJI_ESB_37940_38045",_"ESB_YEI_38635_38695")_ + 1 x_("BAL_ESB_37950_38045",_"ESB_YEI_38635_38695")_ + 1 x_("VAN_ESB_38015_38120",_"ESB_YEI_38635_38695")_ + 1 x_("AYT_ESB_38080_38145",_"ESB_YEI_38635_38695")_ + 1 x_("MQM_ESB_38220_38315",_"ESB_YEI_38635_38695")_ + 1 x_("ERC_ESB_38245_38325",_"ESB_YEI_38635_38695")_ + 1 x_("SAW_ESB_38280_38340",_"ESB_YEI_38635_38695")_ + 1 x_("ADB_ESB_38365_38440",_"ESB_YEI_38635_38695")_ + 1 x_("GNY_ESB_38490_38570",_"ESB_YEI_38635_38695")_ + 1 x_("ECN_ESB_38495_38565",_"ESB_YEI_38635_38695")_ + 1 x_("ADA_ESB_38500_38565",_"ESB_YEI_38635_38695")_ + 1 x_("SZF_ESB_38515_38575",_"ESB_YEI_38635_38695")_ - 1 x_("ESB_YEI_38635_38695",_"YEI_ESB_39120_39180")_ = 0
mp_c2_SAW_ADB_39120_39180_: 1 x_("ADB_SAW_37775_37835",_"SAW_ADB_39120_39180")_ + 1 x_("ESB_SAW_37800_37860",_"SAW_ADB_39120_39180")_ + 1 x_("TZX_SAW_38040_38145",_"SAW_ADB_39120_39180")_ + 1 x_("ESB_SAW_38040_38100",_"SAW_ADB_39120_39180")_ + 1 x_("ESB_SAW_38160_38220",_"SAW_ADB_39120_39180")_ + 1 x_("VAS_SAW_38245_38325",_"SAW_ADB_39120_39180")_ + 1 x_("AYT_SAW_38250_38315",_"SAW_ADB_39120_39180")_ + 1 x_("ADB_SAW_38465_38525",_"SAW_ADB_39120_39180")_ + 1 x_("ASR_SAW_38535_38625",_"SAW_ADB_39120_39180")_ + 1 x_("KYA_SAW_38535_38605",_"SAW_ADB_39120_39180")_ - 1 x_("SAW_ADB_39120_39180",_"ADB_SAW_39905_39965")_ - 1 x_("SAW_ADB_39120_39180",_"ADB_ESB_39805_39880")_ - 1 x_("SAW_ADB_39120_39180",_"ADB_SAW_39215_39275")_ = 0
mp_c2_MLX_ESB_39120_39195_: 1 x_("ESB_MLX_38620_38695",_"MLX_ESB_39120_39195")_ - 1 x_("MLX_ESB_39120_39195",_"ESB_HTY_40070_40150")_ - 1 x_("MLX_ESB_39120_39195",_"ESB_ADB_39690_39770")_ - 1 x_("MLX_ESB_39120_39195",_"ESB_SAW_39480_39540")_ - 1 x_("MLX_ESB_39120_39195",_"ESB_YEI_40075_40135")_ - 1 x_("MLX_ESB_39120_39195",_"ESB_ECN_40065_40135")_ - 1 x_("MLX_ESB_39120_39195",_"ESB_SAW_39600_39660")_ - 1 x_("MLX_ESB_39120_39195",_"ESB_ADA_39840_39900")_ - 1 x_("MLX_ESB_39120_39195",_"ESB_MQM_39530_39625")_ - 1 x_("MLX_ESB_39120_39195",_"ESB_TZX_39240_39320")_ - 1 x_("MLX_ESB_39120_39195",_"ESB_GNY_39820_39895")_ - 1 x_("MLX_ESB_39120_39195",_"ESB_BAL_39265_39355")_ - 1 x_("MLX_ESB_39120_39195",_"ESB_ERC_39570_39650")_ - 1 x_("MLX_ESB_39120_39195",_"ESB_EZS_39555_39630")_ - 1 x_("MLX_ESB_39120_39195",_"ESB_MLX_40060_40135")_ - 1 x_("MLX_ESB_39120_39195",_"ESB_VAN_39325_39420")_ - 1 x_("MLX_ESB_39120_39195",_"ESB_SZF_39860_39920")_ = 0
mp_c2_HTY_ESB_39120_39195_: 1 x_("ECN_HTY_38280_38345",_"HTY_ESB_39120_39195")_ + 1 x_("ESB_HTY_38630_38710",_"HTY_ESB_39120_39195")_ - 1 x_("HTY_ESB_39120_39195",_"ESB_HTY_40070_40150")_ - 1 x_("HTY_ESB_39120_39195",_"ESB_ADB_39690_39770")_ - 1 x_("HTY_ESB_39120_39195",_"ESB_SAW_39480_39540")_ - 1 x_("HTY_ESB_39120_39195",_"ESB_YEI_40075_40135")_ - 1 x_("HTY_ESB_39120_39195",_"ESB_ECN_40065_40135")_ - 1 x_("HTY_ESB_39120_39195",_"ESB_SAW_39600_39660")_ - 1 x_("HTY_ESB_39120_39195",_"ESB_ADA_39840_39900")_ - 1 x_("HTY_ESB_39120_39195",_"ESB_MQM_39530_39625")_ - 1 x_("HTY_ESB_39120_39195",_"ESB_TZX_39240_39320")_ - 1 x_("HTY_ESB_39120_39195",_"ESB_GNY_39820_39895")_ - 1 x_("HTY_ESB_39120_39195",_"ESB_BAL_39265_39355")_ - 1 x_("HTY_ESB_39120_39195",_"ESB_ERC_39570_39650")_ - 1 x_("HTY_ESB_39120_39195",_"ESB_EZS_39555_39630")_ - 1 x_("HTY_ESB_39120_39195",_"ESB_MLX_40060_40135")_ - 1 x_("HTY_ESB_39120_39195",_"ESB_VAN_39325_39420")_ - 1 x_("HTY_ESB_39120_39195",_"ESB_SZF_39860_39920")_ = 0
mp_c2_ECN_ESB_39120_39190_: 1 x_("ESB_ECN_38100_38170",_"ECN_ESB_39120_39190")_ + 1 x_("HTY_ECN_38385_38450",_"ECN_ESB_39120_39190")_ + 1 x_("ESB_ECN_38625_38695",_"ECN_ESB_39120_39190")_ - 1 x_("ECN_ESB_39120_39190",_"ESB_HTY_40070_40150")_ - 1 x_("ECN_ESB_39120_39190",_"ESB_ADB_39690_39770")_ - 1 x_("ECN_ESB_39120_39190",_"ESB_SAW_39480_39540")_ - 1 x_("ECN_ESB_39120_39190",_"ESB_YEI_40075_40135")_ - 1 x_("ECN_ESB_39120_39190",_"ESB_ECN_40065_40135")_ - 1 x_("ECN_ESB_39120_39190",_"ESB_SAW_39600_39660")_ - 1 x_("ECN_ESB_39120_39190",_"ESB_ADA_39840_39900")_ - 1 x_("ECN_ESB_39120_39190",_"ESB_MQM_39530_39625")_ - 1 x_("ECN_ESB_39120_39190",_"ESB_TZX_39240_39320")_ - 1 x_("ECN_ESB_39120_39190",_"ESB_GNY_39820_39895")_ - 1 x_("ECN_ESB_39120_39190",_"ESB_BAL_39265_39355")_ - 1 x_("ECN_ESB_39120_39190",_"ESB_ERC_39570_39650")_ - 1 x_("ECN_ESB_39120_39190",_"ESB_EZS_39555_39630")_ - 1 x_("ECN_ESB_39120_39190",_"ESB_MLX_40060_40135")_ - 1 x_("ECN_ESB_39120_39190",_"ESB_VAN_39325_39420")_ - 1 x_("ECN_ESB_39120_39190",_"ESB_SZF_39860_39920")_ = 0
mp_c2_YEI_ESB_39120_39180_: 1 x_("ESB_YEI_38635_38695",_"YEI_ESB_39120_39180")_ - 1 x_("YEI_ESB_39120_39180",_"ESB_HTY_40070_40150")_ - 1 x_("YEI_ESB_39120_39180",_"ESB_ADB_39690_39770")_ - 1 x_("YEI_ESB_39120_39180",_"ESB_SAW_39480_39540")_ - 1 x_("YEI_ESB_39120_39180",_"ESB_YEI_40075_40135")_ - 1 x_("YEI_ESB_39120_39180",_"ESB_ECN_40065_40135")_ - 1 x_("YEI_ESB_39120_39180",_"ESB_SAW_39600_39660")_ - 1 x_("YEI_ESB_39120_39180",_"ESB_ADA_39840_39900")_ - 1 x_("YEI_ESB_39120_39180",_"ESB_MQM_39530_39625")_ - 1 x_("YEI_ESB_39120_39180",_"ESB_TZX_39240_39320")_ - 1 x_("YEI_ESB_39120_39180",_"ESB_GNY_39820_39895")_ - 1 x_("YEI_ESB_39120_39180",_"ESB_BAL_39265_39355")_ - 1 x_("YEI_ESB_39120_39180",_"ESB_ERC_39570_39650")_ - 1 x_("YEI_ESB_39120_39180",_"ESB_EZS_39555_39630")_ - 1 x_("YEI_ESB_39120_39180",_"ESB_MLX_40060_40135")_ - 1 x_("YEI_ESB_39120_39180",_"ESB_VAN_39325_39420")_ - 1 x_("YEI_ESB_39120_39180",_"ESB_SZF_39860_39920")_ = 0
mp_c2_ADB_SAW_39215_39275_: 1 x_("ESB_ADB_38250_38330",_"ADB_SAW_39215_39275")_ + 1 x_("SAW_ADB_38370_38430",_"ADB_SAW_39215_39275")_ + 1 x_("SAW_ADB_39120_39180",_"ADB_SAW_39215_39275")_ - 1 x_("ADB_SAW_39215_39275",_"SAW_ASR_39855_39940")_ - 1 x_("ADB_SAW_39215_39275",_"SAW_ADB_39810_39870")_ - 1 x_("ADB_SAW_39215_39275",_"SAW_NAJ_39350_39490")_ - 1 x_("ADB_SAW_39215_39275",_"SAW_ADB_40560_40620")_ - 1 x_("ADB_SAW_39215_39275",_"SAW_AYT_39585_39650")_ - 1 x_("ADB_SAW_39215_39275",_"SAW_ESB_39720_39780")_ - 1 x_("ADB_SAW_39215_39275",_"SAW_TZX_39345_39445")_ - 1 x_("ADB_SAW_39215_39275",_"SAW_ESB_39360_39420")_ = 0
mp_c2_ESB_TZX_39240_39320_: 1 x_("SAW_ESB_37740_37800",_"ESB_TZX_39240_39320")_ + 1 x_("TZX_ESB_37915_37995",_"ESB_TZX_39240_39320")_ + 1 x_("SAW_ESB_37920_37980",_"ESB_TZX_39240_39320")_ + 1 x_("AJI_ESB_37940_38045",_"ESB_TZX_39240_39320")_ + 1 x_("BAL_ESB_37950_38045",_"ESB_TZX_39240_39320")_ + 1 x_("VAN_ESB_38015_38120",_"ESB_TZX_39240_39320")_ + 1 x_("AYT_ESB_38080_38145",_"ESB_TZX_39240_39320")_ + 1 x_("MQM_ESB_38220_38315",_"ESB_TZX_39240_39320")_ + 1 x_("ERC_ESB_38245_38325",_"ESB_TZX_39240_39320")_ + 1 x_("SAW_ESB_38280_38340",_"ESB_TZX_39240_39320")_ + 1 x_("ADB_ESB_38365_38440",_"ESB_TZX_39240_39320")_ + 1 x_("GNY_ESB_38490_38570",_"ESB_TZX_39240_39320")_ + 1 x_("ECN_ESB_38495_38565",_"ESB_TZX_39240_39320")_ + 1 x_("ADA_ESB_38500_38565",_"ESB_TZX_39240_39320")_ + 1 x_("SZF_ESB_38515_38575",_"ESB_TZX_39240_39320")_ + 1 x_("MLX_ESB_39120_39195",_"ESB_TZX_39240_39320")_ + 1 x_("HTY_ESB_39120_39195",_"ESB_TZX_39240_39320")_ + 1 x_("ECN_ESB_39120_39190",_"ESB_TZX_39240_39320")_ + 1 x_("YEI_ESB_39120_39180",_"ESB_TZX_39240_39320")_ - 1 x_("ESB_TZX_39240_39320",_"TZX_SAW_39480_39585")_ - 1 x_("ESB_TZX_39240_39320",_"TZX_ESB_39355_39435")_ = 0
mp_c2_ESB_BAL_39265_39355_: 1 x_("TZX_ESB_37915_37995",_"ESB_BAL_39265_39355")_ + 1 x_("SAW_ESB_37920_37980",_"ESB_BAL_39265_39355")_ + 1 x_("AJI_ESB_37940_38045",_"ESB_BAL_39265_39355")_ + 1 x_("BAL_ESB_37950_38045",_"ESB_BAL_39265_39355")_ + 1 x_("VAN_ESB_38015_38120",_"ESB_BAL_39265_39355")_ + 1 x_("AYT_ESB_38080_38145",_"ESB_BAL_39265_39355")_ + 1 x_("MQM_ESB_38220_38315",_"ESB_BAL_39265_39355")_ + 1 x_("ERC_ESB_38245_38325",_"ESB_BAL_39265_39355")_ + 1 x_("SAW_ESB_38280_38340",_"ESB_BAL_39265_39355")_ + 1 x_("ADB_ESB_38365_38440",_"ESB_BAL_39265_39355")_ + 1 x_("GNY_ESB_38490_38570",_"ESB_BAL_39265_39355")_ + 1 x_("ECN_ESB_38495_38565",_"ESB_BAL_39265_39355")_ + 1 x_("ADA_ESB_38500_38565",_"ESB_BAL_39265_39355")_ + 1 x_("SZF_ESB_38515_38575",_"ESB_BAL_39265_39355")_ + 1 x_("MLX_ESB_39120_39195",_"ESB_BAL_39265_39355")_ + 1 x_("HTY_ESB_39120_39195",_"ESB_BAL_39265_39355")_ + 1 x_("ECN_ESB_39120_39190",_"ESB_BAL_39265_39355")_ + 1 x_("YEI_ESB_39120_39180",_"ESB_BAL_39265_39355")_ - 1 x_("ESB_BAL_39265_39355",_"BAL_ESB_39390_39485")_ = 0
mp_c2_ESB_VAN_39325_39420_: 1 x_("TZX_ESB_37915_37995",_"ESB_VAN_39325_39420")_ + 1 x_("SAW_ESB_37920_37980",_"ESB_VAN_39325_39420")_ + 1 x_("AJI_ESB_37940_38045",_"ESB_VAN_39325_39420")_ + 1 x_("BAL_ESB_37950_38045",_"ESB_VAN_39325_39420")_ + 1 x_("VAN_ESB_38015_38120",_"ESB_VAN_39325_39420")_ + 1 x_("AYT_ESB_38080_38145",_"ESB_VAN_39325_39420")_ + 1 x_("MQM_ESB_38220_38315",_"ESB_VAN_39325_39420")_ + 1 x_("ERC_ESB_38245_38325",_"ESB_VAN_39325_39420")_ + 1 x_("SAW_ESB_38280_38340",_"ESB_VAN_39325_39420")_ + 1 x_("ADB_ESB_38365_38440",_"ESB_VAN_39325_39420")_ + 1 x_("GNY_ESB_38490_38570",_"ESB_VAN_39325_39420")_ + 1 x_("ECN_ESB_38495_38565",_"ESB_VAN_39325_39420")_ + 1 x_("ADA_ESB_38500_38565",_"ESB_VAN_39325_39420")_ + 1 x_("SZF_ESB_38515_38575",_"ESB_VAN_39325_39420")_ + 1 x_("MLX_ESB_39120_39195",_"ESB_VAN_39325_39420")_ + 1 x_("HTY_ESB_39120_39195",_"ESB_VAN_39325_39420")_ + 1 x_("ECN_ESB_39120_39190",_"ESB_VAN_39325_39420")_ + 1 x_("YEI_ESB_39120_39180",_"ESB_VAN_39325_39420")_ - 1 x_("ESB_VAN_39325_39420",_"VAN_ESB_39455_39560")_ = 0
mp_c2_SAW_TZX_39345_39445_: 1 x_("TZX_SAW_38040_38145",_"SAW_TZX_39345_39445")_ + 1 x_("ESB_SAW_38040_38100",_"SAW_TZX_39345_39445")_ + 1 x_("ESB_SAW_38160_38220",_"SAW_TZX_39345_39445")_ + 1 x_("VAS_SAW_38245_38325",_"SAW_TZX_39345_39445")_ + 1 x_("AYT_SAW_38250_38315",_"SAW_TZX_39345_39445")_ + 1 x_("ADB_SAW_38465_38525",_"SAW_TZX_39345_39445")_ + 1 x_("ASR_SAW_38535_38625",_"SAW_TZX_39345_39445")_ + 1 x_("KYA_SAW_38535_38605",_"SAW_TZX_39345_39445")_ + 1 x_("ADB_SAW_39215_39275",_"SAW_TZX_39345_39445")_ - 1 x_("SAW_TZX_39345_39445",_"TZX_SAW_39480_39585")_ - 1 x_("SAW_TZX_39345_39445",_"TZX_ESB_40795_40875")_ = 0
mp_c2_SAW_NAJ_39350_39490_: 1 x_("TZX_SAW_38040_38145",_"SAW_NAJ_39350_39490")_ + 1 x_("ESB_SAW_38040_38100",_"SAW_NAJ_39350_39490")_ + 1 x_("ESB_SAW_38160_38220",_"SAW_NAJ_39350_39490")_ + 1 x_("VAS_SAW_38245_38325",_"SAW_NAJ_39350_39490")_ + 1 x_("AYT_SAW_38250_38315",_"SAW_NAJ_39350_39490")_ + 1 x_("ADB_SAW_38465_38525",_"SAW_NAJ_39350_39490")_ + 1 x_("ASR_SAW_38535_38625",_"SAW_NAJ_39350_39490")_ + 1 x_("KYA_SAW_38535_38605",_"SAW_NAJ_39350_39490")_ + 1 x_("ADB_SAW_39215_39275",_"SAW_NAJ_39350_39490")_ - 1 x_("SAW_NAJ_39350_39490",_"NAJ_SAW_39555_39710")_ = 0
mp_c2_TZX_ESB_39355_39435_: 1 x_("SAW_TZX_37905_38005",_"TZX_ESB_39355_39435")_ + 1 x_("ESB_TZX_39240_39320",_"TZX_ESB_39355_39435")_ - 1 x_("TZX_ESB_39355_39435",_"ESB_HTY_40070_40150")_ - 1 x_("TZX_ESB_39355_39435",_"ESB_ADB_39690_39770")_ - 1 x_("TZX_ESB_39355_39435",_"ESB_SAW_39480_39540")_ - 1 x_("TZX_ESB_39355_39435",_"ESB_YEI_40075_40135")_ - 1 x_("TZX_ESB_39355_39435",_"ESB_AYT_40860_40925")_ - 1 x_("TZX_ESB_39355_39435",_"ESB_ECN_40065_40135")_ - 1 x_("TZX_ESB_39355_39435",_"ESB_TZX_40680_40760")_ - 1 x_("TZX_ESB_39355_39435",_"ESB_VAN_40765_40860")_ - 1 x_("TZX_ESB_39355_39435",_"ESB_SAW_39600_39660")_ - 1 x_("TZX_ESB_39355_39435",_"ESB_ADA_39840_39900")_ - 1 x_("TZX_ESB_39355_39435",_"ESB_MQM_39530_39625")_ - 1 x_("TZX_ESB_39355_39435",_"ESB_AJI_40690_40785")_ - 1 x_("TZX_ESB_39355_39435",_"ESB_GNY_39820_39895")_ - 1 x_("TZX_ESB_39355_39435",_"ESB_ERC_39570_39650")_ - 1 x_("TZX_ESB_39355_39435",_"ESB_EZS_39555_39630")_ - 1 x_("TZX_ESB_39355_39435",_"ESB_MLX_40060_40135")_ - 1 x_("TZX_ESB_39355_39435",_"ESB_BAL_40705_40795")_ - 1 x_("TZX_ESB_39355_39435",_"ESB_SZF_39860_39920")_ = 0
mp_c2_SAW_ESB_39360_39420_: 1 x_("TZX_SAW_38040_38145",_"SAW_ESB_39360_39420")_ + 1 x_("ESB_SAW_38040_38100",_"SAW_ESB_39360_39420")_ + 1 x_("ESB_SAW_38160_38220",_"SAW_ESB_39360_39420")_ + 1 x_("VAS_SAW_38245_38325",_"SAW_ESB_39360_39420")_ + 1 x_("AYT_SAW_38250_38315",_"SAW_ESB_39360_39420")_ + 1 x_("ADB_SAW_38465_38525",_"SAW_ESB_39360_39420")_ + 1 x_("ASR_SAW_38535_38625",_"SAW_ESB_39360_39420")_ + 1 x_("KYA_SAW_38535_38605",_"SAW_ESB_39360_39420")_ + 1 x_("ADB_SAW_39215_39275",_"SAW_ESB_39360_39420")_ - 1 x_("SAW_ESB_39360_39420",_"ESB_HTY_40070_40150")_ - 1 x_("SAW_ESB_39360_39420",_"ESB_ADB_39690_39770")_ - 1 x_("SAW_ESB_39360_39420",_"ESB_SAW_39480_39540")_ - 1 x_("SAW_ESB_39360_39420",_"ESB_YEI_40075_40135")_ - 1 x_("SAW_ESB_39360_39420",_"ESB_AYT_40860_40925")_ - 1 x_("SAW_ESB_39360_39420",_"ESB_ECN_40065_40135")_ - 1 x_("SAW_ESB_39360_39420",_"ESB_TZX_40680_40760")_ - 1 x_("SAW_ESB_39360_39420",_"ESB_VAN_40765_40860")_ - 1 x_("SAW_ESB_39360_39420",_"ESB_SAW_39600_39660")_ - 1 x_("SAW_ESB_39360_39420",_"ESB_ADA_39840_39900")_ - 1 x_("SAW_ESB_39360_39420",_"ESB_MQM_39530_39625")_ - 1 x_("SAW_ESB_39360_39420",_"ESB_AJI_40690_40785")_ - 1 x_("SAW_ESB_39360_39420",_"ESB_GNY_39820_39895")_ - 1 x_("SAW_ESB_39360_39420",_"ESB_ERC_39570_39650")_ - 1 x_("SAW_ESB_39360_39420",_"ESB_EZS_39555_39630")_ - 1 x_("SAW_ESB_39360_39420",_"ESB_MLX_40060_40135")_ - 1 x_("SAW_ESB_39360_39420",_"ESB_BAL_40705_40795")_ - 1 x_("SAW_ESB_39360_39420",_"ESB_SZF_39860_39920")_ = 0
mp_c2_BAL_ESB_39390_39485_: 1 x_("ESB_BAL_39265_39355",_"BAL_ESB_39390_39485")_ - 1 x_("BAL_ESB_39390_39485",_"ESB_HTY_40070_40150")_ - 1 x_("BAL_ESB_39390_39485",_"ESB_ADB_39690_39770")_ - 1 x_("BAL_ESB_39390_39485",_"ESB_YEI_40075_40135")_ - 1 x_("BAL_ESB_39390_39485",_"ESB_AYT_40860_40925")_ - 1 x_("BAL_ESB_39390_39485",_"ESB_ECN_40065_40135")_ - 1 x_("BAL_ESB_39390_39485",_"ESB_TZX_40680_40760")_ - 1 x_("BAL_ESB_39390_39485",_"ESB_VAN_40765_40860")_ - 1 x_("BAL_ESB_39390_39485",_"ESB_SAW_39600_39660")_ - 1 x_("BAL_ESB_39390_39485",_"ESB_ADA_39840_39900")_ - 1 x_("BAL_ESB_39390_39485",_"ESB_MQM_39530_39625")_ - 1 x_("BAL_ESB_39390_39485",_"ESB_AJI_40690_40785")_ - 1 x_("BAL_ESB_39390_39485",_"ESB_GNY_39820_39895")_ - 1 x_("BAL_ESB_39390_39485",_"ESB_ERC_39570_39650")_ - 1 x_("BAL_ESB_39390_39485",_"ESB_SAW_40920_40980")_ - 1 x_("BAL_ESB_39390_39485",_"ESB_EZS_39555_39630")_ - 1 x_("BAL_ESB_39390_39485",_"ESB_MLX_40060_40135")_ - 1 x_("BAL_ESB_39390_39485",_"ESB_BAL_40705_40795")_ - 1 x_("BAL_ESB_39390_39485",_"ESB_SZF_39860_39920")_ = 0
mp_c2_VAN_ESB_39455_39560_: 1 x_("ESB_VAN_39325_39420",_"VAN_ESB_39455_39560")_ - 1 x_("VAN_ESB_39455_39560",_"ESB_MQM_40970_41065")_ - 1 x_("VAN_ESB_39455_39560",_"ESB_HTY_40070_40150")_ - 1 x_("VAN_ESB_39455_39560",_"ESB_ADB_39690_39770")_ - 1 x_("VAN_ESB_39455_39560",_"ESB_ECN_40980_41050")_ - 1 x_("VAN_ESB_39455_39560",_"ESB_YEI_40075_40135")_ - 1 x_("VAN_ESB_39455_39560",_"ESB_AYT_40860_40925")_ - 1 x_("VAN_ESB_39455_39560",_"ESB_ECN_40065_40135")_ - 1 x_("VAN_ESB_39455_39560",_"ESB_TZX_40680_40760")_ - 1 x_("VAN_ESB_39455_39560",_"ESB_VAN_40765_40860")_ - 1 x_("VAN_ESB_39455_39560",_"ESB_SAW_39600_39660")_ - 1 x_("VAN_ESB_39455_39560",_"ESB_ADA_39840_39900")_ - 1 x_("VAN_ESB_39455_39560",_"ESB_AJI_40690_40785")_ - 1 x_("VAN_ESB_39455_39560",_"ESB_GNY_39820_39895")_ - 1 x_("VAN_ESB_39455_39560",_"ESB_SAW_40920_40980")_ - 1 x_("VAN_ESB_39455_39560",_"ESB_MLX_40060_40135")_ - 1 x_("VAN_ESB_39455_39560",_"ESB_BAL_40705_40795")_ - 1 x_("VAN_ESB_39455_39560",_"ESB_SZF_39860_39920")_ = 0
mp_c2_ESB_SAW_39480_39540_: 1 x_("AJI_ESB_37940_38045",_"ESB_SAW_39480_39540")_ + 1 x_("BAL_ESB_37950_38045",_"ESB_SAW_39480_39540")_ + 1 x_("VAN_ESB_38015_38120",_"ESB_SAW_39480_39540")_ + 1 x_("AYT_ESB_38080_38145",_"ESB_SAW_39480_39540")_ + 1 x_("MQM_ESB_38220_38315",_"ESB_SAW_39480_39540")_ + 1 x_("ERC_ESB_38245_38325",_"ESB_SAW_39480_39540")_ + 1 x_("SAW_ESB_38280_38340",_"ESB_SAW_39480_39540")_ + 1 x_("ADB_ESB_38365_38440",_"ESB_SAW_39480_39540")_ + 1 x_("GNY_ESB_38490_38570",_"ESB_SAW_39480_39540")_ + 1 x_("ECN_ESB_38495_38565",_"ESB_SAW_39480_39540")_ + 1 x_("ADA_ESB_38500_38565",_"ESB_SAW_39480_39540")_ + 1 x_("SZF_ESB_38515_38575",_"ESB_SAW_39480_39540")_ + 1 x_("MLX_ESB_39120_39195",_"ESB_SAW_39480_39540")_ + 1 x_("HTY_ESB_39120_39195",_"ESB_SAW_39480_39540")_ + 1 x_("ECN_ESB_39120_39190",_"ESB_SAW_39480_39540")_ + 1 x_("YEI_ESB_39120_39180",_"ESB_SAW_39480_39540")_ + 1 x_("TZX_ESB_39355_39435",_"ESB_SAW_39480_39540")_ + 1 x_("SAW_ESB_39360_39420",_"ESB_SAW_39480_39540")_ - 1 x_("ESB_SAW_39480_39540",_"SAW_ASR_39855_39940")_ - 1 x_("ESB_SAW_39480_39540",_"SAW_ADB_39810_39870")_ - 1 x_("ESB_SAW_39480_39540",_"SAW_ADB_40560_40620")_ - 1 x_("ESB_SAW_39480_39540",_"SAW_AYT_39585_39650")_ - 1 x_("ESB_SAW_39480_39540",_"SAW_ESB_39720_39780")_ - 1 x_("ESB_SAW_39480_39540",_"SAW_TZX_40785_40885")_ - 1 x_("ESB_SAW_39480_39540",_"SAW_ESB_40800_40860")_ = 0
mp_c2_TZX_SAW_39480_39585_: 1 x_("ESB_TZX_39240_39320",_"TZX_SAW_39480_39585")_ + 1 x_("SAW_TZX_39345_39445",_"TZX_SAW_39480_39585")_ - 1 x_("TZX_SAW_39480_39585",_"SAW_VAS_41010_41090")_ - 1 x_("TZX_SAW_39480_39585",_"SAW_ASR_39855_39940")_ - 1 x_("TZX_SAW_39480_39585",_"SAW_ADB_39810_39870")_ - 1 x_("TZX_SAW_39480_39585",_"SAW_ADB_40560_40620")_ - 1 x_("TZX_SAW_39480_39585",_"SAW_ESB_39720_39780")_ - 1 x_("TZX_SAW_39480_39585",_"SAW_TZX_40785_40885")_ - 1 x_("TZX_SAW_39480_39585",_"SAW_AYT_41025_41090")_ - 1 x_("TZX_SAW_39480_39585",_"SAW_ESB_40800_40860")_ = 0
mp_c2_ESB_MQM_39530_39625_: 1 x_("VAN_ESB_38015_38120",_"ESB_MQM_39530_39625")_ + 1 x_("AYT_ESB_38080_38145",_"ESB_MQM_39530_39625")_ + 1 x_("MQM_ESB_38220_38315",_"ESB_MQM_39530_39625")_ + 1 x_("ERC_ESB_38245_38325",_"ESB_MQM_39530_39625")_ + 1 x_("SAW_ESB_38280_38340",_"ESB_MQM_39530_39625")_ + 1 x_("ADB_ESB_38365_38440",_"ESB_MQM_39530_39625")_ + 1 x_("GNY_ESB_38490_38570",_"ESB_MQM_39530_39625")_ + 1 x_("ECN_ESB_38495_38565",_"ESB_MQM_39530_39625")_ + 1 x_("ADA_ESB_38500_38565",_"ESB_MQM_39530_39625")_ + 1 x_("SZF_ESB_38515_38575",_"ESB_MQM_39530_39625")_ + 1 x_("MLX_ESB_39120_39195",_"ESB_MQM_39530_39625")_ + 1 x_("HTY_ESB_39120_39195",_"ESB_MQM_39530_39625")_ + 1 x_("ECN_ESB_39120_39190",_"ESB_MQM_39530_39625")_ + 1 x_("YEI_ESB_39120_39180",_"ESB_MQM_39530_39625")_ + 1 x_("TZX_ESB_39355_39435",_"ESB_MQM_39530_39625")_ + 1 x_("SAW_ESB_39360_39420",_"ESB_MQM_39530_39625")_ + 1 x_("BAL_ESB_39390_39485",_"ESB_MQM_39530_39625")_ - 1 x_("ESB_MQM_39530_39625",_"MQM_ESB_39660_39755")_ = 0
mp_c2_ESB_EZS_39555_39630_: 1 x_("VAN_ESB_38015_38120",_"ESB_EZS_39555_39630")_ + 1 x_("AYT_ESB_38080_38145",_"ESB_EZS_39555_39630")_ + 1 x_("MQM_ESB_38220_38315",_"ESB_EZS_39555_39630")_ + 1 x_("ERC_ESB_38245_38325",_"ESB_EZS_39555_39630")_ + 1 x_("SAW_ESB_38280_38340",_"ESB_EZS_39555_39630")_ + 1 x_("ADB_ESB_38365_38440",_"ESB_EZS_39555_39630")_ + 1 x_("GNY_ESB_38490_38570",_"ESB_EZS_39555_39630")_ + 1 x_("ECN_ESB_38495_38565",_"ESB_EZS_39555_39630")_ + 1 x_("ADA_ESB_38500_38565",_"ESB_EZS_39555_39630")_ + 1 x_("SZF_ESB_38515_38575",_"ESB_EZS_39555_39630")_ + 1 x_("MLX_ESB_39120_39195",_"ESB_EZS_39555_39630")_ + 1 x_("HTY_ESB_39120_39195",_"ESB_EZS_39555_39630")_ + 1 x_("ECN_ESB_39120_39190",_"ESB_EZS_39555_39630")_ + 1 x_("YEI_ESB_39120_39180",_"ESB_EZS_39555_39630")_ + 1 x_("TZX_ESB_39355_39435",_"ESB_EZS_39555_39630")_ + 1 x_("SAW_ESB_39360_39420",_"ESB_EZS_39555_39630")_ + 1 x_("BAL_ESB_39390_39485",_"ESB_EZS_39555_39630")_ - 1 x_("ESB_EZS_39555_39630",_"EZS_ESB_39665_39745")_ = 0
mp_c2_NAJ_SAW_39555_39710_: 1 x_("SAW_NAJ_39350_39490",_"NAJ_SAW_39555_39710")_ - 1 x_("NAJ_SAW_39555_39710",_"SAW_VAS_41010_41090")_ - 1 x_("NAJ_SAW_39555_39710",_"SAW_ASR_39855_39940")_ - 1 x_("NAJ_SAW_39555_39710",_"SAW_ADB_39810_39870")_ - 1 x_("NAJ_SAW_39555_39710",_"SAW_ADB_40560_40620")_ - 1 x_("NAJ_SAW_39555_39710",_"SAW_TZX_40785_40885")_ - 1 x_("NAJ_SAW_39555_39710",_"SAW_AYT_41025_41090")_ - 1 x_("NAJ_SAW_39555_39710",_"SAW_ESB_40800_40860")_ = 0
mp_c2_ESB_ERC_39570_39650_: 1 x_("AYT_ESB_38080_38145",_"ESB_ERC_39570_39650")_ + 1 x_("MQM_ESB_38220_38315",_"ESB_ERC_39570_39650")_ + 1 x_("ERC_ESB_38245_38325",_"ESB_ERC_39570_39650")_ + 1 x_("SAW_ESB_38280_38340",_"ESB_ERC_39570_39650")_ + 1 x_("ADB_ESB_38365_38440",_"ESB_ERC_39570_39650")_ + 1 x_("GNY_ESB_38490_38570",_"ESB_ERC_39570_39650")_ + 1 x_("ECN_ESB_38495_38565",_"ESB_ERC_39570_39650")_ + 1 x_("ADA_ESB_38500_38565",_"ESB_ERC_39570_39650")_ + 1 x_("SZF_ESB_38515_38575",_"ESB_ERC_39570_39650")_ + 1 x_("MLX_ESB_39120_39195",_"ESB_ERC_39570_39650")_ + 1 x_("HTY_ESB_39120_39195",_"ESB_ERC_39570_39650")_ + 1 x_("ECN_ESB_39120_39190",_"ESB_ERC_39570_39650")_ + 1 x_("YEI_ESB_39120_39180",_"ESB_ERC_39570_39650")_ + 1 x_("TZX_ESB_39355_39435",_"ESB_ERC_39570_39650")_ + 1 x_("SAW_ESB_39360_39420",_"ESB_ERC_39570_39650")_ + 1 x_("BAL_ESB_39390_39485",_"ESB_ERC_39570_39650")_ - 1 x_("ESB_ERC_39570_39650",_"ERC_ESB_39685_39765")_ = 0
mp_c2_SAW_AYT_39585_39650_: 1 x_("TZX_SAW_38040_38145",_"SAW_AYT_39585_39650")_ + 1 x_("ESB_SAW_38160_38220",_"SAW_AYT_39585_39650")_ + 1 x_("VAS_SAW_38245_38325",_"SAW_AYT_39585_39650")_ + 1 x_("AYT_SAW_38250_38315",_"SAW_AYT_39585_39650")_ + 1 x_("ADB_SAW_38465_38525",_"SAW_AYT_39585_39650")_ + 1 x_("ASR_SAW_38535_38625",_"SAW_AYT_39585_39650")_ + 1 x_("KYA_SAW_38535_38605",_"SAW_AYT_39585_39650")_ + 1 x_("ADB_SAW_39215_39275",_"SAW_AYT_39585_39650")_ + 1 x_("ESB_SAW_39480_39540",_"SAW_AYT_39585_39650")_ - 1 x_("SAW_AYT_39585_39650",_"AYT_SAW_39690_39755")_ - 1 x_("SAW_AYT_39585_39650",_"AYT_ESB_40960_41025")_ = 0
mp_c2_ESB_SAW_39600_39660_: 1 x_("MQM_ESB_38220_38315",_"ESB_SAW_39600_39660")_ + 1 x_("ERC_ESB_38245_38325",_"ESB_SAW_39600_39660")_ + 1 x_("SAW_ESB_38280_38340",_"ESB_SAW_39600_39660")_ + 1 x_("ADB_ESB_38365_38440",_"ESB_SAW_39600_39660")_ + 1 x_("GNY_ESB_38490_38570",_"ESB_SAW_39600_39660")_ + 1 x_("ECN_ESB_38495_38565",_"ESB_SAW_39600_39660")_ + 1 x_("ADA_ESB_38500_38565",_"ESB_SAW_39600_39660")_ + 1 x_("SZF_ESB_38515_38575",_"ESB_SAW_39600_39660")_ + 1 x_("MLX_ESB_39120_39195",_"ESB_SAW_39600_39660")_ + 1 x_("HTY_ESB_39120_39195",_"ESB_SAW_39600_39660")_ + 1 x_("ECN_ESB_39120_39190",_"ESB_SAW_39600_39660")_ + 1 x_("YEI_ESB_39120_39180",_"ESB_SAW_39600_39660")_ + 1 x_("TZX_ESB_39355_39435",_"ESB_SAW_39600_39660")_ + 1 x_("SAW_ESB_39360_39420",_"ESB_SAW_39600_39660")_ + 1 x_("BAL_ESB_39390_39485",_"ESB_SAW_39600_39660")_ + 1 x_("VAN_ESB_39455_39560",_"ESB_SAW_39600_39660")_ - 1 x_("ESB_SAW_39600_39660",_"SAW_VAS_41010_41090")_ - 1 x_("ESB_SAW_39600_39660",_"SAW_ASR_39855_39940")_ - 1 x_("ESB_SAW_39600_39660",_"SAW_ADB_39810_39870")_ - 1 x_("ESB_SAW_39600_39660",_"SAW_ADB_40560_40620")_ - 1 x_("ESB_SAW_39600_39660",_"SAW_ESB_39720_39780")_ - 1 x_("ESB_SAW_39600_39660",_"SAW_TZX_40785_40885")_ - 1 x_("ESB_SAW_39600_39660",_"SAW_AYT_41025_41090")_ - 1 x_("ESB_SAW_39600_39660",_"SAW_ESB_40800_40860")_ = 0
mp_c2_MQM_ESB_39660_39755_: 1 x_("ESB_MQM_39530_39625",_"MQM_ESB_39660_39755")_ - 1 x_("MQM_ESB_39660_39755",_"ESB_MQM_40970_41065")_ - 1 x_("MQM_ESB_39660_39755",_"ESB_HTY_40070_40150")_ - 1 x_("MQM_ESB_39660_39755",_"ESB_ECN_40980_41050")_ - 1 x_("MQM_ESB_39660_39755",_"ESB_SAW_41040_41100")_ - 1 x_("MQM_ESB_39660_39755",_"ESB_YEI_40075_40135")_ - 1 x_("MQM_ESB_39660_39755",_"ESB_AYT_40860_40925")_ - 1 x_("MQM_ESB_39660_39755",_"ESB_ECN_40065_40135")_ - 1 x_("MQM_ESB_39660_39755",_"ESB_TZX_40680_40760")_ - 1 x_("MQM_ESB_39660_39755",_"ESB_VAN_40765_40860")_ - 1 x_("MQM_ESB_39660_39755",_"ESB_ADA_39840_39900")_ - 1 x_("MQM_ESB_39660_39755",_"ESB_ERC_41010_41090")_ - 1 x_("MQM_ESB_39660_39755",_"ESB_ADB_41130_41210")_ - 1 x_("MQM_ESB_39660_39755",_"ESB_AJI_40690_40785")_ - 1 x_("MQM_ESB_39660_39755",_"ESB_GNY_39820_39895")_ - 1 x_("MQM_ESB_39660_39755",_"ESB_SAW_40920_40980")_ - 1 x_("MQM_ESB_39660_39755",_"ESB_MLX_40060_40135")_ - 1 x_("MQM_ESB_39660_39755",_"ESB_BAL_40705_40795")_ - 1 x_("MQM_ESB_39660_39755",_"ESB_SZF_39860_39920")_ = 0
mp_c2_EZS_ESB_39665_39745_: 1 x_("ESB_EZS_39555_39630",_"EZS_ESB_39665_39745")_ - 1 x_("EZS_ESB_39665_39745",_"ESB_MQM_40970_41065")_ - 1 x_("EZS_ESB_39665_39745",_"ESB_HTY_40070_40150")_ - 1 x_("EZS_ESB_39665_39745",_"ESB_ECN_40980_41050")_ - 1 x_("EZS_ESB_39665_39745",_"ESB_SAW_41040_41100")_ - 1 x_("EZS_ESB_39665_39745",_"ESB_YEI_40075_40135")_ - 1 x_("EZS_ESB_39665_39745",_"ESB_AYT_40860_40925")_ - 1 x_("EZS_ESB_39665_39745",_"ESB_ECN_40065_40135")_ - 1 x_("EZS_ESB_39665_39745",_"ESB_TZX_40680_40760")_ - 1 x_("EZS_ESB_39665_39745",_"ESB_VAN_40765_40860")_ - 1 x_("EZS_ESB_39665_39745",_"ESB_ADA_39840_39900")_ - 1 x_("EZS_ESB_39665_39745",_"ESB_ERC_41010_41090")_ - 1 x_("EZS_ESB_39665_39745",_"ESB_ADB_41130_41210")_ - 1 x_("EZS_ESB_39665_39745",_"ESB_AJI_40690_40785")_ - 1 x_("EZS_ESB_39665_39745",_"ESB_GNY_39820_39895")_ - 1 x_("EZS_ESB_39665_39745",_"ESB_SAW_40920_40980")_ - 1 x_("EZS_ESB_39665_39745",_"ESB_MLX_40060_40135")_ - 1 x_("EZS_ESB_39665_39745",_"ESB_BAL_40705_40795")_ - 1 x_("EZS_ESB_39665_39745",_"ESB_SZF_39860_39920")_ = 0
mp_c2_ERC_ESB_39685_39765_: 1 x_("ESB_ERC_39570_39650",_"ERC_ESB_39685_39765")_ - 1 x_("ERC_ESB_39685_39765",_"ESB_MQM_40970_41065")_ - 1 x_("ERC_ESB_39685_39765",_"ESB_HTY_40070_40150")_ - 1 x_("ERC_ESB_39685_39765",_"ESB_ECN_40980_41050")_ - 1 x_("ERC_ESB_39685_39765",_"ESB_SAW_41040_41100")_ - 1 x_("ERC_ESB_39685_39765",_"ESB_YEI_40075_40135")_ - 1 x_("ERC_ESB_39685_39765",_"ESB_AYT_40860_40925")_ - 1 x_("ERC_ESB_39685_39765",_"ESB_ECN_40065_40135")_ - 1 x_("ERC_ESB_39685_39765",_"ESB_TZX_40680_40760")_ - 1 x_("ERC_ESB_39685_39765",_"ESB_VAN_40765_40860")_ - 1 x_("ERC_ESB_39685_39765",_"ESB_ADA_39840_39900")_ - 1 x_("ERC_ESB_39685_39765",_"ESB_ERC_41010_41090")_ - 1 x_("ERC_ESB_39685_39765",_"ESB_ADB_41130_41210")_ - 1 x_("ERC_ESB_39685_39765",_"ESB_AJI_40690_40785")_ - 1 x_("ERC_ESB_39685_39765",_"ESB_GNY_39820_39895")_ - 1 x_("ERC_ESB_39685_39765",_"ESB_SAW_40920_40980")_ - 1 x_("ERC_ESB_39685_39765",_"ESB_MLX_40060_40135")_ - 1 x_("ERC_ESB_39685_39765",_"ESB_BAL_40705_40795")_ - 1 x_("ERC_ESB_39685_39765",_"ESB_SZF_39860_39920")_ = 0
mp_c2_ESB_ADB_39690_39770_: 1 x_("MQM_ESB_38220_38315",_"ESB_ADB_39690_39770")_ + 1 x_("ERC_ESB_38245_38325",_"ESB_ADB_39690_39770")_ + 1 x_("SAW_ESB_38280_38340",_"ESB_ADB_39690_39770")_ + 1 x_("ADB_ESB_38365_38440",_"ESB_ADB_39690_39770")_ + 1 x_("GNY_ESB_38490_38570",_"ESB_ADB_39690_39770")_ + 1 x_("ECN_ESB_38495_38565",_"ESB_ADB_39690_39770")_ + 1 x_("ADA_ESB_38500_38565",_"ESB_ADB_39690_39770")_ + 1 x_("SZF_ESB_38515_38575",_"ESB_ADB_39690_39770")_ + 1 x_("MLX_ESB_39120_39195",_"ESB_ADB_39690_39770")_ + 1 x_("HTY_ESB_39120_39195",_"ESB_ADB_39690_39770")_ + 1 x_("ECN_ESB_39120_39190",_"ESB_ADB_39690_39770")_ + 1 x_("YEI_ESB_39120_39180",_"ESB_ADB_39690_39770")_ + 1 x_("TZX_ESB_39355_39435",_"ESB_ADB_39690_39770")_ + 1 x_("SAW_ESB_39360_39420",_"ESB_ADB_39690_39770")_ + 1 x_("BAL_ESB_39390_39485",_"ESB_ADB_39690_39770")_ + 1 x_("VAN_ESB_39455_39560",_"ESB_ADB_39690_39770")_ - 1 x_("ESB_ADB_39690_39770",_"ADB_SAW_39905_39965")_ - 1 x_("ESB_ADB_39690_39770",_"ADB_ESB_39805_39880")_ - 1 x_("ESB_ADB_39690_39770",_"ADB_SAW_40655_40715")_ = 0
mp_c2_AYT_SAW_39690_39755_: 1 x_("SAW_AYT_39585_39650",_"AYT_SAW_39690_39755")_ - 1 x_("AYT_SAW_39690_39755",_"SAW_VAS_41010_41090")_ - 1 x_("AYT_SAW_39690_39755",_"SAW_ASR_39855_39940")_ - 1 x_("AYT_SAW_39690_39755",_"SAW_ESB_41160_41220")_ - 1 x_("AYT_SAW_39690_39755",_"SAW_ADB_39810_39870")_ - 1 x_("AYT_SAW_39690_39755",_"SAW_ADB_40560_40620")_ - 1 x_("AYT_SAW_39690_39755",_"SAW_TZX_40785_40885")_ - 1 x_("AYT_SAW_39690_39755",_"SAW_AYT_41025_41090")_ - 1 x_("AYT_SAW_39690_39755",_"SAW_ESB_40800_40860")_ = 0
mp_c2_SAW_ESB_39720_39780_: 1 x_("VAS_SAW_38245_38325",_"SAW_ESB_39720_39780")_ + 1 x_("AYT_SAW_38250_38315",_"SAW_ESB_39720_39780")_ + 1 x_("ADB_SAW_38465_38525",_"SAW_ESB_39720_39780")_ + 1 x_("ASR_SAW_38535_38625",_"SAW_ESB_39720_39780")_ + 1 x_("KYA_SAW_38535_38605",_"SAW_ESB_39720_39780")_ + 1 x_("ADB_SAW_39215_39275",_"SAW_ESB_39720_39780")_ + 1 x_("ESB_SAW_39480_39540",_"SAW_ESB_39720_39780")_ + 1 x_("TZX_SAW_39480_39585",_"SAW_ESB_39720_39780")_ + 1 x_("ESB_SAW_39600_39660",_"SAW_ESB_39720_39780")_ - 1 x_("SAW_ESB_39720_39780",_"ESB_MQM_40970_41065")_ - 1 x_("SAW_ESB_39720_39780",_"ESB_HTY_40070_40150")_ - 1 x_("SAW_ESB_39720_39780",_"ESB_ECN_40980_41050")_ - 1 x_("SAW_ESB_39720_39780",_"ESB_SAW_41040_41100")_ - 1 x_("SAW_ESB_39720_39780",_"ESB_YEI_40075_40135")_ - 1 x_("SAW_ESB_39720_39780",_"ESB_AYT_40860_40925")_ - 1 x_("SAW_ESB_39720_39780",_"ESB_ECN_40065_40135")_ - 1 x_("SAW_ESB_39720_39780",_"ESB_TZX_40680_40760")_ - 1 x_("SAW_ESB_39720_39780",_"ESB_VAN_40765_40860")_ - 1 x_("SAW_ESB_39720_39780",_"ESB_ADA_39840_39900")_ - 1 x_("SAW_ESB_39720_39780",_"ESB_ERC_41010_41090")_ - 1 x_("SAW_ESB_39720_39780",_"ESB_ADB_41130_41210")_ - 1 x_("SAW_ESB_39720_39780",_"ESB_AJI_40690_40785")_ - 1 x_("SAW_ESB_39720_39780",_"ESB_GNY_39820_39895")_ - 1 x_("SAW_ESB_39720_39780",_"ESB_SAW_40920_40980")_ - 1 x_("SAW_ESB_39720_39780",_"ESB_MLX_40060_40135")_ - 1 x_("SAW_ESB_39720_39780",_"ESB_BAL_40705_40795")_ - 1 x_("SAW_ESB_39720_39780",_"ESB_SZF_39860_39920")_ = 0
mp_c2_ADB_ESB_39805_39880_: 1 x_("SAW_ADB_38370_38430",_"ADB_ESB_39805_39880")_ + 1 x_("SAW_ADB_39120_39180",_"ADB_ESB_39805_39880")_ + 1 x_("ESB_ADB_39690_39770",_"ADB_ESB_39805_39880")_ - 1 x_("ADB_ESB_39805_39880",_"ESB_MQM_40970_41065")_ - 1 x_("ADB_ESB_39805_39880",_"ESB_HTY_40070_40150")_ - 1 x_("ADB_ESB_39805_39880",_"ESB_ECN_40980_41050")_ - 1 x_("ADB_ESB_39805_39880",_"ESB_SAW_41040_41100")_ - 1 x_("ADB_ESB_39805_39880",_"ESB_YEI_40075_40135")_ - 1 x_("ADB_ESB_39805_39880",_"ESB_AYT_40860_40925")_ - 1 x_("ADB_ESB_39805_39880",_"ESB_ECN_40065_40135")_ - 1 x_("ADB_ESB_39805_39880",_"ESB_TZX_40680_40760")_ - 1 x_("ADB_ESB_39805_39880",_"ESB_VAN_40765_40860")_ - 1 x_("ADB_ESB_39805_39880",_"ESB_ERC_41010_41090")_ - 1 x_("ADB_ESB_39805_39880",_"ESB_ADB_41130_41210")_ - 1 x_("ADB_ESB_39805_39880",_"ESB_SZF_41300_41360")_ - 1 x_("ADB_ESB_39805_39880",_"ESB_AJI_40690_40785")_ - 1 x_("ADB_ESB_39805_39880",_"ESB_GNY_41260_41335")_ - 1 x_("ADB_ESB_39805_39880",_"ESB_ADA_41280_41340")_ - 1 x_("ADB_ESB_39805_39880",_"ESB_SAW_40920_40980")_ - 1 x_("ADB_ESB_39805_39880",_"ESB_MLX_40060_40135")_ - 1 x_("ADB_ESB_39805_39880",_"ESB_BAL_40705_40795")_ = 0
mp_c2_SAW_ADB_39810_39870_: 1 x_("ADB_SAW_38465_38525",_"SAW_ADB_39810_39870")_ + 1 x_("ASR_SAW_38535_38625",_"SAW_ADB_39810_39870")_ + 1 x_("KYA_SAW_38535_38605",_"SAW_ADB_39810_39870")_ + 1 x_("ADB_SAW_39215_39275",_"SAW_ADB_39810_39870")_ + 1 x_("ESB_SAW_39480_39540",_"SAW_ADB_39810_39870")_ + 1 x_("TZX_SAW_39480_39585",_"SAW_ADB_39810_39870")_ + 1 x_("NAJ_SAW_39555_39710",_"SAW_ADB_39810_39870")_ + 1 x_("ESB_SAW_39600_39660",_"SAW_ADB_39810_39870")_ + 1 x_("AYT_SAW_39690_39755",_"SAW_ADB_39810_39870")_ - 1 x_("SAW_ADB_39810_39870",_"ADB_ESB_41245_41320")_ - 1 x_("SAW_ADB_39810_39870",_"ADB_SAW_39905_39965")_ - 1 x_("SAW_ADB_39810_39870",_"ADB_SAW_40655_40715")_ = 0
mp_c2_ESB_GNY_39820_39895_: 1 x_("ADB_ESB_38365_38440",_"ESB_GNY_39820_39895")_ + 1 x_("GNY_ESB_38490_38570",_"ESB_GNY_39820_39895")_ + 1 x_("ECN_ESB_38495_38565",_"ESB_GNY_39820_39895")_ + 1 x_("ADA_ESB_38500_38565",_"ESB_GNY_39820_39895")_ + 1 x_("SZF_ESB_38515_38575",_"ESB_GNY_39820_39895")_ + 1 x_("MLX_ESB_39120_39195",_"ESB_GNY_39820_39895")_ + 1 x_("HTY_ESB_39120_39195",_"ESB_GNY_39820_39895")_ + 1 x_("ECN_ESB_39120_39190",_"ESB_GNY_39820_39895")_ + 1 x_("YEI_ESB_39120_39180",_"ESB_GNY_39820_39895")_ + 1 x_("TZX_ESB_39355_39435",_"ESB_GNY_39820_39895")_ + 1 x_("SAW_ESB_39360_39420",_"ESB_GNY_39820_39895")_ + 1 x_("BAL_ESB_39390_39485",_"ESB_GNY_39820_39895")_ + 1 x_("VAN_ESB_39455_39560",_"ESB_GNY_39820_39895")_ + 1 x_("MQM_ESB_39660_39755",_"ESB_GNY_39820_39895")_ + 1 x_("EZS_ESB_39665_39745",_"ESB_GNY_39820_39895")_ + 1 x_("ERC_ESB_39685_39765",_"ESB_GNY_39820_39895")_ + 1 x_("SAW_ESB_39720_39780",_"ESB_GNY_39820_39895")_ - 1 x_("ESB_GNY_39820_39895",_"GNY_ESB_39930_40010")_ = 0
mp_c2_ESB_ADA_39840_39900_: 1 x_("ADB_ESB_38365_38440",_"ESB_ADA_39840_39900")_ + 1 x_("GNY_ESB_38490_38570",_"ESB_ADA_39840_39900")_ + 1 x_("ECN_ESB_38495_38565",_"ESB_ADA_39840_39900")_ + 1 x_("ADA_ESB_38500_38565",_"ESB_ADA_39840_39900")_ + 1 x_("SZF_ESB_38515_38575",_"ESB_ADA_39840_39900")_ + 1 x_("MLX_ESB_39120_39195",_"ESB_ADA_39840_39900")_ + 1 x_("HTY_ESB_39120_39195",_"ESB_ADA_39840_39900")_ + 1 x_("ECN_ESB_39120_39190",_"ESB_ADA_39840_39900")_ + 1 x_("YEI_ESB_39120_39180",_"ESB_ADA_39840_39900")_ + 1 x_("TZX_ESB_39355_39435",_"ESB_ADA_39840_39900")_ + 1 x_("SAW_ESB_39360_39420",_"ESB_ADA_39840_39900")_ + 1 x_("BAL_ESB_39390_39485",_"ESB_ADA_39840_39900")_ + 1 x_("VAN_ESB_39455_39560",_"ESB_ADA_39840_39900")_ + 1 x_("MQM_ESB_39660_39755",_"ESB_ADA_39840_39900")_ + 1 x_("EZS_ESB_39665_39745",_"ESB_ADA_39840_39900")_ + 1 x_("ERC_ESB_39685_39765",_"ESB_ADA_39840_39900")_ + 1 x_("SAW_ESB_39720_39780",_"ESB_ADA_39840_39900")_ - 1 x_("ESB_ADA_39840_39900",_"ADA_ESB_39940_40005")_ = 0
mp_c2_SAW_ASR_39855_39940_: 1 x_("ADB_SAW_38465_38525",_"SAW_ASR_39855_39940")_ + 1 x_("ASR_SAW_38535_38625",_"SAW_ASR_39855_39940")_ + 1 x_("KYA_SAW_38535_38605",_"SAW_ASR_39855_39940")_ + 1 x_("ADB_SAW_39215_39275",_"SAW_ASR_39855_39940")_ + 1 x_("ESB_SAW_39480_39540",_"SAW_ASR_39855_39940")_ + 1 x_("TZX_SAW_39480_39585",_"SAW_ASR_39855_39940")_ + 1 x_("NAJ_SAW_39555_39710",_"SAW_ASR_39855_39940")_ + 1 x_("ESB_SAW_39600_39660",_"SAW_ASR_39855_39940")_ + 1 x_("AYT_SAW_39690_39755",_"SAW_ASR_39855_39940")_ - 1 x_("SAW_ASR_39855_39940",_"ASR_SAW_39975_40065")_ = 0
mp_c2_ESB_SZF_39860_39920_: 1 x_("ADB_ESB_38365_38440",_"ESB_SZF_39860_39920")_ + 1 x_("GNY_ESB_38490_38570",_"ESB_SZF_39860_39920")_ + 1 x_("ECN_ESB_38495_38565",_"ESB_SZF_39860_39920")_ + 1 x_("ADA_ESB_38500_38565",_"ESB_SZF_39860_39920")_ + 1 x_("SZF_ESB_38515_38575",_"ESB_SZF_39860_39920")_ + 1 x_("MLX_ESB_39120_39195",_"ESB_SZF_39860_39920")_ + 1 x_("HTY_ESB_39120_39195",_"ESB_SZF_39860_39920")_ + 1 x_("ECN_ESB_39120_39190",_"ESB_SZF_39860_39920")_ + 1 x_("YEI_ESB_39120_39180",_"ESB_SZF_39860_39920")_ + 1 x_("TZX_ESB_39355_39435",_"ESB_SZF_39860_39920")_ + 1 x_("SAW_ESB_39360_39420",_"ESB_SZF_39860_39920")_ + 1 x_("BAL_ESB_39390_39485",_"ESB_SZF_39860_39920")_ + 1 x_("VAN_ESB_39455_39560",_"ESB_SZF_39860_39920")_ + 1 x_("MQM_ESB_39660_39755",_"ESB_SZF_39860_39920")_ + 1 x_("EZS_ESB_39665_39745",_"ESB_SZF_39860_39920")_ + 1 x_("ERC_ESB_39685_39765",_"ESB_SZF_39860_39920")_ + 1 x_("SAW_ESB_39720_39780",_"ESB_SZF_39860_39920")_ - 1 x_("ESB_SZF_39860_39920",_"SZF_ESB_39955_40015")_ = 0
mp_c2_ADB_SAW_39905_39965_: 1 x_("SAW_ADB_39120_39180",_"ADB_SAW_39905_39965")_ + 1 x_("ESB_ADB_39690_39770",_"ADB_SAW_39905_39965")_ + 1 x_("SAW_ADB_39810_39870",_"ADB_SAW_39905_39965")_ - 1 x_("ADB_SAW_39905_39965",_"SAW_VAS_41010_41090")_ - 1 x_("ADB_SAW_39905_39965",_"SAW_ESB_41160_41220")_ - 1 x_("ADB_SAW_39905_39965",_"SAW_ADB_40560_40620")_ - 1 x_("ADB_SAW_39905_39965",_"SAW_ADB_41250_41310")_ - 1 x_("ADB_SAW_39905_39965",_"SAW_TZX_40785_40885")_ - 1 x_("ADB_SAW_39905_39965",_"SAW_KYA_41310_41380")_ - 1 x_("ADB_SAW_39905_39965",_"SAW_AYT_41025_41090")_ - 1 x_("ADB_SAW_39905_39965",_"SAW_ASR_41295_41380")_ - 1 x_("ADB_SAW_39905_39965",_"SAW_ESB_40800_40860")_ = 0
mp_c2_GNY_ESB_39930_40010_: 1 x_("ESB_GNY_39820_39895",_"GNY_ESB_39930_40010")_ - 1 x_("GNY_ESB_39930_40010",_"ESB_MQM_40970_41065")_ - 1 x_("GNY_ESB_39930_40010",_"ESB_HTY_40070_40150")_ - 1 x_("GNY_ESB_39930_40010",_"ESB_ECN_40980_41050")_ - 1 x_("GNY_ESB_39930_40010",_"ESB_SAW_41040_41100")_ - 1 x_("GNY_ESB_39930_40010",_"ESB_YEI_40075_40135")_ - 1 x_("GNY_ESB_39930_40010",_"ESB_AYT_40860_40925")_ - 1 x_("GNY_ESB_39930_40010",_"ESB_ECN_40065_40135")_ - 1 x_("GNY_ESB_39930_40010",_"ESB_TZX_40680_40760")_ - 1 x_("GNY_ESB_39930_40010",_"ESB_VAN_40765_40860")_ - 1 x_("GNY_ESB_39930_40010",_"ESB_ERC_41010_41090")_ - 1 x_("GNY_ESB_39930_40010",_"ESB_ADB_41130_41210")_ - 1 x_("GNY_ESB_39930_40010",_"ESB_SZF_41300_41360")_ - 1 x_("GNY_ESB_39930_40010",_"ESB_AJI_40690_40785")_ - 1 x_("GNY_ESB_39930_40010",_"ESB_GNY_41260_41335")_ - 1 x_("GNY_ESB_39930_40010",_"ESB_ADA_41280_41340")_ - 1 x_("GNY_ESB_39930_40010",_"ESB_SAW_40920_40980")_ - 1 x_("GNY_ESB_39930_40010",_"ESB_MLX_40060_40135")_ - 1 x_("GNY_ESB_39930_40010",_"ESB_BAL_40705_40795")_ = 0
mp_c2_ADA_ESB_39940_40005_: 1 x_("ESB_ADA_39840_39900",_"ADA_ESB_39940_40005")_ - 1 x_("ADA_ESB_39940_40005",_"ESB_MQM_40970_41065")_ - 1 x_("ADA_ESB_39940_40005",_"ESB_HTY_40070_40150")_ - 1 x_("ADA_ESB_39940_40005",_"ESB_ECN_40980_41050")_ - 1 x_("ADA_ESB_39940_40005",_"ESB_SAW_41040_41100")_ - 1 x_("ADA_ESB_39940_40005",_"ESB_YEI_40075_40135")_ - 1 x_("ADA_ESB_39940_40005",_"ESB_AYT_40860_40925")_ - 1 x_("ADA_ESB_39940_40005",_"ESB_ECN_40065_40135")_ - 1 x_("ADA_ESB_39940_40005",_"ESB_TZX_40680_40760")_ - 1 x_("ADA_ESB_39940_40005",_"ESB_VAN_40765_40860")_ - 1 x_("ADA_ESB_39940_40005",_"ESB_ERC_41010_41090")_ - 1 x_("ADA_ESB_39940_40005",_"ESB_ADB_41130_41210")_ - 1 x_("ADA_ESB_39940_40005",_"ESB_SZF_41300_41360")_ - 1 x_("ADA_ESB_39940_40005",_"ESB_AJI_40690_40785")_ - 1 x_("ADA_ESB_39940_40005",_"ESB_GNY_41260_41335")_ - 1 x_("ADA_ESB_39940_40005",_"ESB_ADA_41280_41340")_ - 1 x_("ADA_ESB_39940_40005",_"ESB_SAW_40920_40980")_ - 1 x_("ADA_ESB_39940_40005",_"ESB_MLX_40060_40135")_ - 1 x_("ADA_ESB_39940_40005",_"ESB_BAL_40705_40795")_ = 0
mp_c2_SZF_ESB_39955_40015_: 1 x_("ESB_SZF_39860_39920",_"SZF_ESB_39955_40015")_ - 1 x_("SZF_ESB_39955_40015",_"ESB_MQM_40970_41065")_ - 1 x_("SZF_ESB_39955_40015",_"ESB_HTY_40070_40150")_ - 1 x_("SZF_ESB_39955_40015",_"ESB_ECN_40980_41050")_ - 1 x_("SZF_ESB_39955_40015",_"ESB_SAW_41040_41100")_ - 1 x_("SZF_ESB_39955_40015",_"ESB_YEI_40075_40135")_ - 1 x_("SZF_ESB_39955_40015",_"ESB_AYT_40860_40925")_ - 1 x_("SZF_ESB_39955_40015",_"ESB_ECN_40065_40135")_ - 1 x_("SZF_ESB_39955_40015",_"ESB_TZX_40680_40760")_ - 1 x_("SZF_ESB_39955_40015",_"ESB_VAN_40765_40860")_ - 1 x_("SZF_ESB_39955_40015",_"ESB_ERC_41010_41090")_ - 1 x_("SZF_ESB_39955_40015",_"ESB_ADB_41130_41210")_ - 1 x_("SZF_ESB_39955_40015",_"ESB_SZF_41300_41360")_ - 1 x_("SZF_ESB_39955_40015",_"ESB_AJI_40690_40785")_ - 1 x_("SZF_ESB_39955_40015",_"ESB_GNY_41260_41335")_ - 1 x_("SZF_ESB_39955_40015",_"ESB_ADA_41280_41340")_ - 1 x_("SZF_ESB_39955_40015",_"ESB_SAW_40920_40980")_ - 1 x_("SZF_ESB_39955_40015",_"ESB_MLX_40060_40135")_ - 1 x_("SZF_ESB_39955_40015",_"ESB_BAL_40705_40795")_ = 0
mp_c2_ASR_SAW_39975_40065_: 1 x_("SAW_ASR_39855_39940",_"ASR_SAW_39975_40065")_ - 1 x_("ASR_SAW_39975_40065",_"SAW_VAS_41010_41090")_ - 1 x_("ASR_SAW_39975_40065",_"SAW_ESB_41160_41220")_ - 1 x_("ASR_SAW_39975_40065",_"SAW_ADB_40560_40620")_ - 1 x_("ASR_SAW_39975_40065",_"SAW_ADB_41250_41310")_ - 1 x_("ASR_SAW_39975_40065",_"SAW_TZX_40785_40885")_ - 1 x_("ASR_SAW_39975_40065",_"SAW_KYA_41310_41380")_ - 1 x_("ASR_SAW_39975_40065",_"SAW_AYT_41025_41090")_ - 1 x_("ASR_SAW_39975_40065",_"SAW_ASR_41295_41380")_ - 1 x_("ASR_SAW_39975_40065",_"SAW_ESB_40800_40860")_ = 0
mp_c2_ESB_MLX_40060_40135_: 1 x_("MLX_ESB_39120_39195",_"ESB_MLX_40060_40135")_ + 1 x_("HTY_ESB_39120_39195",_"ESB_MLX_40060_40135")_ + 1 x_("ECN_ESB_39120_39190",_"ESB_MLX_40060_40135")_ + 1 x_("YEI_ESB_39120_39180",_"ESB_MLX_40060_40135")_ + 1 x_("TZX_ESB_39355_39435",_"ESB_MLX_40060_40135")_ + 1 x_("SAW_ESB_39360_39420",_"ESB_MLX_40060_40135")_ + 1 x_("BAL_ESB_39390_39485",_"ESB_MLX_40060_40135")_ + 1 x_("VAN_ESB_39455_39560",_"ESB_MLX_40060_40135")_ + 1 x_("MQM_ESB_39660_39755",_"ESB_MLX_40060_40135")_ + 1 x_("EZS_ESB_39665_39745",_"ESB_MLX_40060_40135")_ + 1 x_("ERC_ESB_39685_39765",_"ESB_MLX_40060_40135")_ + 1 x_("SAW_ESB_39720_39780",_"ESB_MLX_40060_40135")_ + 1 x_("ADB_ESB_39805_39880",_"ESB_MLX_40060_40135")_ + 1 x_("GNY_ESB_39930_40010",_"ESB_MLX_40060_40135")_ + 1 x_("ADA_ESB_39940_40005",_"ESB_MLX_40060_40135")_ + 1 x_("SZF_ESB_39955_40015",_"ESB_MLX_40060_40135")_ - 1 x_("ESB_MLX_40060_40135",_"MLX_ESB_40560_40635")_ = 0
mp_c2_ESB_ECN_40065_40135_: 1 x_("MLX_ESB_39120_39195",_"ESB_ECN_40065_40135")_ + 1 x_("HTY_ESB_39120_39195",_"ESB_ECN_40065_40135")_ + 1 x_("ECN_ESB_39120_39190",_"ESB_ECN_40065_40135")_ + 1 x_("YEI_ESB_39120_39180",_"ESB_ECN_40065_40135")_ + 1 x_("TZX_ESB_39355_39435",_"ESB_ECN_40065_40135")_ + 1 x_("SAW_ESB_39360_39420",_"ESB_ECN_40065_40135")_ + 1 x_("BAL_ESB_39390_39485",_"ESB_ECN_40065_40135")_ + 1 x_("VAN_ESB_39455_39560",_"ESB_ECN_40065_40135")_ + 1 x_("MQM_ESB_39660_39755",_"ESB_ECN_40065_40135")_ + 1 x_("EZS_ESB_39665_39745",_"ESB_ECN_40065_40135")_ + 1 x_("ERC_ESB_39685_39765",_"ESB_ECN_40065_40135")_ + 1 x_("SAW_ESB_39720_39780",_"ESB_ECN_40065_40135")_ + 1 x_("ADB_ESB_39805_39880",_"ESB_ECN_40065_40135")_ + 1 x_("GNY_ESB_39930_40010",_"ESB_ECN_40065_40135")_ + 1 x_("ADA_ESB_39940_40005",_"ESB_ECN_40065_40135")_ + 1 x_("SZF_ESB_39955_40015",_"ESB_ECN_40065_40135")_ - 1 x_("ESB_ECN_40065_40135",_"ECN_ESB_40560_40630")_ - 1 x_("ESB_ECN_40065_40135",_"ECN_HTY_41160_41225")_ - 1 x_("ESB_ECN_40065_40135",_"ECN_ESB_41375_41445")_ = 0
mp_c2_ESB_HTY_40070_40150_: 1 x_("MLX_ESB_39120_39195",_"ESB_HTY_40070_40150")_ + 1 x_("HTY_ESB_39120_39195",_"ESB_HTY_40070_40150")_ + 1 x_("ECN_ESB_39120_39190",_"ESB_HTY_40070_40150")_ + 1 x_("YEI_ESB_39120_39180",_"ESB_HTY_40070_40150")_ + 1 x_("TZX_ESB_39355_39435",_"ESB_HTY_40070_40150")_ + 1 x_("SAW_ESB_39360_39420",_"ESB_HTY_40070_40150")_ + 1 x_("BAL_ESB_39390_39485",_"ESB_HTY_40070_40150")_ + 1 x_("VAN_ESB_39455_39560",_"ESB_HTY_40070_40150")_ + 1 x_("MQM_ESB_39660_39755",_"ESB_HTY_40070_40150")_ + 1 x_("EZS_ESB_39665_39745",_"ESB_HTY_40070_40150")_ + 1 x_("ERC_ESB_39685_39765",_"ESB_HTY_40070_40150")_ + 1 x_("SAW_ESB_39720_39780",_"ESB_HTY_40070_40150")_ + 1 x_("ADB_ESB_39805_39880",_"ESB_HTY_40070_40150")_ + 1 x_("GNY_ESB_39930_40010",_"ESB_HTY_40070_40150")_ + 1 x_("ADA_ESB_39940_40005",_"ESB_HTY_40070_40150")_ + 1 x_("SZF_ESB_39955_40015",_"ESB_HTY_40070_40150")_ - 1 x_("ESB_HTY_40070_40150",_"HTY_ECN_41265_41330")_ - 1 x_("ESB_HTY_40070_40150",_"HTY_ESB_40560_40635")_ = 0
mp_c2_ESB_YEI_40075_40135_: 1 x_("MLX_ESB_39120_39195",_"ESB_YEI_40075_40135")_ + 1 x_("HTY_ESB_39120_39195",_"ESB_YEI_40075_40135")_ + 1 x_("ECN_ESB_39120_39190",_"ESB_YEI_40075_40135")_ + 1 x_("YEI_ESB_39120_39180",_"ESB_YEI_40075_40135")_ + 1 x_("TZX_ESB_39355_39435",_"ESB_YEI_40075_40135")_ + 1 x_("SAW_ESB_39360_39420",_"ESB_YEI_40075_40135")_ + 1 x_("BAL_ESB_39390_39485",_"ESB_YEI_40075_40135")_ + 1 x_("VAN_ESB_39455_39560",_"ESB_YEI_40075_40135")_ + 1 x_("MQM_ESB_39660_39755",_"ESB_YEI_40075_40135")_ + 1 x_("EZS_ESB_39665_39745",_"ESB_YEI_40075_40135")_ + 1 x_("ERC_ESB_39685_39765",_"ESB_YEI_40075_40135")_ + 1 x_("SAW_ESB_39720_39780",_"ESB_YEI_40075_40135")_ + 1 x_("ADB_ESB_39805_39880",_"ESB_YEI_40075_40135")_ + 1 x_("GNY_ESB_39930_40010",_"ESB_YEI_40075_40135")_ + 1 x_("ADA_ESB_39940_40005",_"ESB_YEI_40075_40135")_ + 1 x_("SZF_ESB_39955_40015",_"ESB_YEI_40075_40135")_ - 1 x_("ESB_YEI_40075_40135",_"YEI_ESB_40560_40620")_ = 0
mp_c2_SAW_ADB_40560_40620_: 1 x_("ADB_SAW_39215_39275",_"SAW_ADB_40560_40620")_ + 1 x_("ESB_SAW_39480_39540",_"SAW_ADB_40560_40620")_ + 1 x_("TZX_SAW_39480_39585",_"SAW_ADB_40560_40620")_ + 1 x_("NAJ_SAW_39555_39710",_"SAW_ADB_40560_40620")_ + 1 x_("ESB_SAW_39600_39660",_"SAW_ADB_40560_40620")_ + 1 x_("AYT_SAW_39690_39755",_"SAW_ADB_40560_40620")_ + 1 x_("ADB_SAW_39905_39965",_"SAW_ADB_40560_40620")_ + 1 x_("ASR_SAW_39975_40065",_"SAW_ADB_40560_40620")_ - 1 x_("SAW_ADB_40560_40620",_"ADB_ESB_41245_41320")_ - 1 x_("SAW_ADB_40560_40620",_"ADB_SAW_41345_41405")_ - 1 x_("SAW_ADB_40560_40620",_"ADB_SAW_40655_40715")_ - 1 x_("SAW_ADB_40560_40620",_"t")_ = 0
mp_c2_ECN_ESB_40560_40630_: 1 x_("ESB_ECN_40065_40135",_"ECN_ESB_40560_40630")_ - 1 x_("ECN_ESB_40560_40630",_"ESB_MQM_40970_41065")_ - 1 x_("ECN_ESB_40560_40630",_"ESB_ECN_40980_41050")_ - 1 x_("ECN_ESB_40560_40630",_"ESB_ECN_41505_41575")_ - 1 x_("ECN_ESB_40560_40630",_"ESB_SAW_41040_41100")_ - 1 x_("ECN_ESB_40560_40630",_"ESB_AYT_40860_40925")_ - 1 x_("ECN_ESB_40560_40630",_"ESB_TZX_40680_40760")_ - 1 x_("ECN_ESB_40560_40630",_"ESB_VAN_40765_40860")_ - 1 x_("ECN_ESB_40560_40630",_"ESB_ERC_41010_41090")_ - 1 x_("ECN_ESB_40560_40630",_"ESB_ADB_41130_41210")_ - 1 x_("ECN_ESB_40560_40630",_"ESB_SZF_41300_41360")_ - 1 x_("ECN_ESB_40560_40630",_"ESB_MLX_41500_41575")_ - 1 x_("ECN_ESB_40560_40630",_"ESB_AJI_40690_40785")_ - 1 x_("ECN_ESB_40560_40630",_"ESB_GNY_41260_41335")_ - 1 x_("ECN_ESB_40560_40630",_"ESB_ADA_41280_41340")_ - 1 x_("ECN_ESB_40560_40630",_"ESB_HTY_41510_41590")_ - 1 x_("ECN_ESB_40560_40630",_"ESB_SAW_40920_40980")_ - 1 x_("ECN_ESB_40560_40630",_"ESB_BAL_40705_40795")_ - 1 x_("ECN_ESB_40560_40630",_"ESB_YEI_41515_41575")_ - 1 x_("ECN_ESB_40560_40630",_"t")_ = 0
mp_c2_YEI_ESB_40560_40620_: 1 x_("ESB_YEI_40075_40135",_"YEI_ESB_40560_40620")_ - 1 x_("YEI_ESB_40560_40620",_"ESB_MQM_40970_41065")_ - 1 x_("YEI_ESB_40560_40620",_"ESB_ECN_40980_41050")_ - 1 x_("YEI_ESB_40560_40620",_"ESB_ECN_41505_41575")_ - 1 x_("YEI_ESB_40560_40620",_"ESB_SAW_41040_41100")_ - 1 x_("YEI_ESB_40560_40620",_"ESB_AYT_40860_40925")_ - 1 x_("YEI_ESB_40560_40620",_"ESB_TZX_40680_40760")_ - 1 x_("YEI_ESB_40560_40620",_"ESB_VAN_40765_40860")_ - 1 x_("YEI_ESB_40560_40620",_"ESB_ERC_41010_41090")_ - 1 x_("YEI_ESB_40560_40620",_"ESB_ADB_41130_41210")_ - 1 x_("YEI_ESB_40560_40620",_"ESB_SZF_41300_41360")_ - 1 x_("YEI_ESB_40560_40620",_"ESB_MLX_41500_41575")_ - 1 x_("YEI_ESB_40560_40620",_"ESB_AJI_40690_40785")_ - 1 x_("YEI_ESB_40560_40620",_"ESB_GNY_41260_41335")_ - 1 x_("YEI_ESB_40560_40620",_"ESB_ADA_41280_41340")_ - 1 x_("YEI_ESB_40560_40620",_"ESB_HTY_41510_41590")_ - 1 x_("YEI_ESB_40560_40620",_"ESB_SAW_40920_40980")_ - 1 x_("YEI_ESB_40560_40620",_"ESB_BAL_40705_40795")_ - 1 x_("YEI_ESB_40560_40620",_"ESB_YEI_41515_41575")_ - 1 x_("YEI_ESB_40560_40620",_"t")_ = 0
mp_c2_MLX_ESB_40560_40635_: 1 x_("ESB_MLX_40060_40135",_"MLX_ESB_40560_40635")_ - 1 x_("MLX_ESB_40560_40635",_"ESB_MQM_40970_41065")_ - 1 x_("MLX_ESB_40560_40635",_"ESB_ECN_40980_41050")_ - 1 x_("MLX_ESB_40560_40635",_"ESB_ECN_41505_41575")_ - 1 x_("MLX_ESB_40560_40635",_"ESB_SAW_41040_41100")_ - 1 x_("MLX_ESB_40560_40635",_"ESB_AYT_40860_40925")_ - 1 x_("MLX_ESB_40560_40635",_"ESB_TZX_40680_40760")_ - 1 x_("MLX_ESB_40560_40635",_"ESB_VAN_40765_40860")_ - 1 x_("MLX_ESB_40560_40635",_"ESB_ERC_41010_41090")_ - 1 x_("MLX_ESB_40560_40635",_"ESB_ADB_41130_41210")_ - 1 x_("MLX_ESB_40560_40635",_"ESB_SZF_41300_41360")_ - 1 x_("MLX_ESB_40560_40635",_"ESB_MLX_41500_41575")_ - 1 x_("MLX_ESB_40560_40635",_"ESB_AJI_40690_40785")_ - 1 x_("MLX_ESB_40560_40635",_"ESB_GNY_41260_41335")_ - 1 x_("MLX_ESB_40560_40635",_"ESB_ADA_41280_41340")_ - 1 x_("MLX_ESB_40560_40635",_"ESB_HTY_41510_41590")_ - 1 x_("MLX_ESB_40560_40635",_"ESB_SAW_40920_40980")_ - 1 x_("MLX_ESB_40560_40635",_"ESB_BAL_40705_40795")_ - 1 x_("MLX_ESB_40560_40635",_"ESB_YEI_41515_41575")_ - 1 x_("MLX_ESB_40560_40635",_"t")_ = 0
mp_c2_HTY_ESB_40560_40635_: 1 x_("ESB_HTY_40070_40150",_"HTY_ESB_40560_40635")_ - 1 x_("HTY_ESB_40560_40635",_"ESB_MQM_40970_41065")_ - 1 x_("HTY_ESB_40560_40635",_"ESB_ECN_40980_41050")_ - 1 x_("HTY_ESB_40560_40635",_"ESB_ECN_41505_41575")_ - 1 x_("HTY_ESB_40560_40635",_"ESB_SAW_41040_41100")_ - 1 x_("HTY_ESB_40560_40635",_"ESB_AYT_40860_40925")_ - 1 x_("HTY_ESB_40560_40635",_"ESB_TZX_40680_40760")_ - 1 x_("HTY_ESB_40560_40635",_"ESB_VAN_40765_40860")_ - 1 x_("HTY_ESB_40560_40635",_"ESB_ERC_41010_41090")_ - 1 x_("HTY_ESB_40560_40635",_"ESB_ADB_41130_41210")_ - 1 x_("HTY_ESB_40560_40635",_"ESB_SZF_41300_41360")_ - 1 x_("HTY_ESB_40560_40635",_"ESB_MLX_41500_41575")_ - 1 x_("HTY_ESB_40560_40635",_"ESB_AJI_40690_40785")_ - 1 x_("HTY_ESB_40560_40635",_"ESB_GNY_41260_41335")_ - 1 x_("HTY_ESB_40560_40635",_"ESB_ADA_41280_41340")_ - 1 x_("HTY_ESB_40560_40635",_"ESB_HTY_41510_41590")_ - 1 x_("HTY_ESB_40560_40635",_"ESB_SAW_40920_40980")_ - 1 x_("HTY_ESB_40560_40635",_"ESB_BAL_40705_40795")_ - 1 x_("HTY_ESB_40560_40635",_"ESB_YEI_41515_41575")_ - 1 x_("HTY_ESB_40560_40635",_"t")_ = 0
mp_c2_ADB_SAW_40655_40715_: 1 x_("ESB_ADB_39690_39770",_"ADB_SAW_40655_40715")_ + 1 x_("SAW_ADB_39810_39870",_"ADB_SAW_40655_40715")_ + 1 x_("SAW_ADB_40560_40620",_"ADB_SAW_40655_40715")_ - 1 x_("ADB_SAW_40655_40715",_"SAW_VAS_41010_41090")_ - 1 x_("ADB_SAW_40655_40715",_"SAW_ESB_41160_41220")_ - 1 x_("ADB_SAW_40655_40715",_"SAW_ADB_41250_41310")_ - 1 x_("ADB_SAW_40655_40715",_"SAW_TZX_40785_40885")_ - 1 x_("ADB_SAW_40655_40715",_"SAW_KYA_41310_41380")_ - 1 x_("ADB_SAW_40655_40715",_"SAW_AYT_41025_41090")_ - 1 x_("ADB_SAW_40655_40715",_"SAW_ASR_41295_41380")_ - 1 x_("ADB_SAW_40655_40715",_"SAW_ESB_40800_40860")_ - 1 x_("ADB_SAW_40655_40715",_"t")_ = 0
mp_c2_ESB_TZX_40680_40760_: 1 x_("TZX_ESB_39355_39435",_"ESB_TZX_40680_40760")_ + 1 x_("SAW_ESB_39360_39420",_"ESB_TZX_40680_40760")_ + 1 x_("BAL_ESB_39390_39485",_"ESB_TZX_40680_40760")_ + 1 x_("VAN_ESB_39455_39560",_"ESB_TZX_40680_40760")_ + 1 x_("MQM_ESB_39660_39755",_"ESB_TZX_40680_40760")_ + 1 x_("EZS_ESB_39665_39745",_"ESB_TZX_40680_40760")_ + 1 x_("ERC_ESB_39685_39765",_"ESB_TZX_40680_40760")_ + 1 x_("SAW_ESB_39720_39780",_"ESB_TZX_40680_40760")_ + 1 x_("ADB_ESB_39805_39880",_"ESB_TZX_40680_40760")_ + 1 x_("GNY_ESB_39930_40010",_"ESB_TZX_40680_40760")_ + 1 x_("ADA_ESB_39940_40005",_"ESB_TZX_40680_40760")_ + 1 x_("SZF_ESB_39955_40015",_"ESB_TZX_40680_40760")_ + 1 x_("ECN_ESB_40560_40630",_"ESB_TZX_40680_40760")_ + 1 x_("YEI_ESB_40560_40620",_"ESB_TZX_40680_40760")_ + 1 x_("MLX_ESB_40560_40635",_"ESB_TZX_40680_40760")_ + 1 x_("HTY_ESB_40560_40635",_"ESB_TZX_40680_40760")_ - 1 x_("ESB_TZX_40680_40760",_"TZX_ESB_40795_40875")_ - 1 x_("ESB_TZX_40680_40760",_"TZX_SAW_40920_41025")_ - 1 x_("ESB_TZX_40680_40760",_"t")_ = 0
mp_c2_ESB_AJI_40690_40785_: 1 x_("TZX_ESB_39355_39435",_"ESB_AJI_40690_40785")_ + 1 x_("SAW_ESB_39360_39420",_"ESB_AJI_40690_40785")_ + 1 x_("BAL_ESB_39390_39485",_"ESB_AJI_40690_40785")_ + 1 x_("VAN_ESB_39455_39560",_"ESB_AJI_40690_40785")_ + 1 x_("MQM_ESB_39660_39755",_"ESB_AJI_40690_40785")_ + 1 x_("EZS_ESB_39665_39745",_"ESB_AJI_40690_40785")_ + 1 x_("ERC_ESB_39685_39765",_"ESB_AJI_40690_40785")_ + 1 x_("SAW_ESB_39720_39780",_"ESB_AJI_40690_40785")_ + 1 x_("ADB_ESB_39805_39880",_"ESB_AJI_40690_40785")_ + 1 x_("GNY_ESB_39930_40010",_"ESB_AJI_40690_40785")_ + 1 x_("ADA_ESB_39940_40005",_"ESB_AJI_40690_40785")_ + 1 x_("SZF_ESB_39955_40015",_"ESB_AJI_40690_40785")_ + 1 x_("ECN_ESB_40560_40630",_"ESB_AJI_40690_40785")_ + 1 x_("YEI_ESB_40560_40620",_"ESB_AJI_40690_40785")_ + 1 x_("MLX_ESB_40560_40635",_"ESB_AJI_40690_40785")_ + 1 x_("HTY_ESB_40560_40635",_"ESB_AJI_40690_40785")_ - 1 x_("ESB_AJI_40690_40785",_"AJI_ESB_40820_40925")_ - 1 x_("ESB_AJI_40690_40785",_"t")_ = 0
mp_c2_ESB_BAL_40705_40795_: 1 x_("TZX_ESB_39355_39435",_"ESB_BAL_40705_40795")_ + 1 x_("SAW_ESB_39360_39420",_"ESB_BAL_40705_40795")_ + 1 x_("BAL_ESB_39390_39485",_"ESB_BAL_40705_40795")_ + 1 x_("VAN_ESB_39455_39560",_"ESB_BAL_40705_40795")_ + 1 x_("MQM_ESB_39660_39755",_"ESB_BAL_40705_40795")_ + 1 x_("EZS_ESB_39665_39745",_"ESB_BAL_40705_40795")_ + 1 x_("ERC_ESB_39685_39765",_"ESB_BAL_40705_40795")_ + 1 x_("SAW_ESB_39720_39780",_"ESB_BAL_40705_40795")_ + 1 x_("ADB_ESB_39805_39880",_"ESB_BAL_40705_40795")_ + 1 x_("GNY_ESB_39930_40010",_"ESB_BAL_40705_40795")_ + 1 x_("ADA_ESB_39940_40005",_"ESB_BAL_40705_40795")_ + 1 x_("SZF_ESB_39955_40015",_"ESB_BAL_40705_40795")_ + 1 x_("ECN_ESB_40560_40630",_"ESB_BAL_40705_40795")_ + 1 x_("YEI_ESB_40560_40620",_"ESB_BAL_40705_40795")_ + 1 x_("MLX_ESB_40560_40635",_"ESB_BAL_40705_40795")_ + 1 x_("HTY_ESB_40560_40635",_"ESB_BAL_40705_40795")_ - 1 x_("ESB_BAL_40705_40795",_"BAL_ESB_40830_40925")_ - 1 x_("ESB_BAL_40705_40795",_"t")_ = 0
mp_c2_ESB_VAN_40765_40860_: 1 x_("TZX_ESB_39355_39435",_"ESB_VAN_40765_40860")_ + 1 x_("SAW_ESB_39360_39420",_"ESB_VAN_40765_40860")_ + 1 x_("BAL_ESB_39390_39485",_"ESB_VAN_40765_40860")_ + 1 x_("VAN_ESB_39455_39560",_"ESB_VAN_40765_40860")_ + 1 x_("MQM_ESB_39660_39755",_"ESB_VAN_40765_40860")_ + 1 x_("EZS_ESB_39665_39745",_"ESB_VAN_40765_40860")_ + 1 x_("ERC_ESB_39685_39765",_"ESB_VAN_40765_40860")_ + 1 x_("SAW_ESB_39720_39780",_"ESB_VAN_40765_40860")_ + 1 x_("ADB_ESB_39805_39880",_"ESB_VAN_40765_40860")_ + 1 x_("GNY_ESB_39930_40010",_"ESB_VAN_40765_40860")_ + 1 x_("ADA_ESB_39940_40005",_"ESB_VAN_40765_40860")_ + 1 x_("SZF_ESB_39955_40015",_"ESB_VAN_40765_40860")_ + 1 x_("ECN_ESB_40560_40630",_"ESB_VAN_40765_40860")_ + 1 x_("YEI_ESB_40560_40620",_"ESB_VAN_40765_40860")_ + 1 x_("MLX_ESB_40560_40635",_"ESB_VAN_40765_40860")_ + 1 x_("HTY_ESB_40560_40635",_"ESB_VAN_40765_40860")_ - 1 x_("ESB_VAN_40765_40860",_"VAN_ESB_40895_41000")_ - 1 x_("ESB_VAN_40765_40860",_"t")_ = 0
mp_c2_SAW_TZX_40785_40885_: 1 x_("ESB_SAW_39480_39540",_"SAW_TZX_40785_40885")_ + 1 x_("TZX_SAW_39480_39585",_"SAW_TZX_40785_40885")_ + 1 x_("NAJ_SAW_39555_39710",_"SAW_TZX_40785_40885")_ + 1 x_("ESB_SAW_39600_39660",_"SAW_TZX_40785_40885")_ + 1 x_("AYT_SAW_39690_39755",_"SAW_TZX_40785_40885")_ + 1 x_("ADB_SAW_39905_39965",_"SAW_TZX_40785_40885")_ + 1 x_("ASR_SAW_39975_40065",_"SAW_TZX_40785_40885")_ + 1 x_("ADB_SAW_40655_40715",_"SAW_TZX_40785_40885")_ - 1 x_("SAW_TZX_40785_40885",_"TZX_SAW_40920_41025")_ - 1 x_("SAW_TZX_40785_40885",_"t")_ = 0
mp_c2_TZX_ESB_40795_40875_: 1 x_("SAW_TZX_39345_39445",_"TZX_ESB_40795_40875")_ + 1 x_("ESB_TZX_40680_40760",_"TZX_ESB_40795_40875")_ - 1 x_("TZX_ESB_40795_40875",_"ESB_MQM_40970_41065")_ - 1 x_("TZX_ESB_40795_40875",_"ESB_ECN_40980_41050")_ - 1 x_("TZX_ESB_40795_40875",_"ESB_ECN_41505_41575")_ - 1 x_("TZX_ESB_40795_40875",_"ESB_SAW_41040_41100")_ - 1 x_("TZX_ESB_40795_40875",_"ESB_ERC_41010_41090")_ - 1 x_("TZX_ESB_40795_40875",_"ESB_ADB_41130_41210")_ - 1 x_("TZX_ESB_40795_40875",_"ESB_SZF_41300_41360")_ - 1 x_("TZX_ESB_40795_40875",_"ESB_MLX_41500_41575")_ - 1 x_("TZX_ESB_40795_40875",_"ESB_GNY_41260_41335")_ - 1 x_("TZX_ESB_40795_40875",_"ESB_ADA_41280_41340")_ - 1 x_("TZX_ESB_40795_40875",_"ESB_HTY_41510_41590")_ - 1 x_("TZX_ESB_40795_40875",_"ESB_SAW_40920_40980")_ - 1 x_("TZX_ESB_40795_40875",_"ESB_YEI_41515_41575")_ - 1 x_("TZX_ESB_40795_40875",_"t")_ = 0
mp_c2_SAW_ESB_40800_40860_: 1 x_("ESB_SAW_39480_39540",_"SAW_ESB_40800_40860")_ + 1 x_("TZX_SAW_39480_39585",_"SAW_ESB_40800_40860")_ + 1 x_("NAJ_SAW_39555_39710",_"SAW_ESB_40800_40860")_ + 1 x_("ESB_SAW_39600_39660",_"SAW_ESB_40800_40860")_ + 1 x_("AYT_SAW_39690_39755",_"SAW_ESB_40800_40860")_ + 1 x_("ADB_SAW_39905_39965",_"SAW_ESB_40800_40860")_ + 1 x_("ASR_SAW_39975_40065",_"SAW_ESB_40800_40860")_ + 1 x_("ADB_SAW_40655_40715",_"SAW_ESB_40800_40860")_ - 1 x_("SAW_ESB_40800_40860",_"ESB_MQM_40970_41065")_ - 1 x_("SAW_ESB_40800_40860",_"ESB_ECN_40980_41050")_ - 1 x_("SAW_ESB_40800_40860",_"ESB_ECN_41505_41575")_ - 1 x_("SAW_ESB_40800_40860",_"ESB_SAW_41040_41100")_ - 1 x_("SAW_ESB_40800_40860",_"ESB_ERC_41010_41090")_ - 1 x_("SAW_ESB_40800_40860",_"ESB_ADB_41130_41210")_ - 1 x_("SAW_ESB_40800_40860",_"ESB_SZF_41300_41360")_ - 1 x_("SAW_ESB_40800_40860",_"ESB_MLX_41500_41575")_ - 1 x_("SAW_ESB_40800_40860",_"ESB_GNY_41260_41335")_ - 1 x_("SAW_ESB_40800_40860",_"ESB_ADA_41280_41340")_ - 1 x_("SAW_ESB_40800_40860",_"ESB_HTY_41510_41590")_ - 1 x_("SAW_ESB_40800_40860",_"ESB_SAW_40920_40980")_ - 1 x_("SAW_ESB_40800_40860",_"ESB_YEI_41515_41575")_ - 1 x_("SAW_ESB_40800_40860",_"t")_ = 0
mp_c2_AJI_ESB_40820_40925_: 1 x_("ESB_AJI_40690_40785",_"AJI_ESB_40820_40925")_ - 1 x_("AJI_ESB_40820_40925",_"ESB_MQM_40970_41065")_ - 1 x_("AJI_ESB_40820_40925",_"ESB_ECN_40980_41050")_ - 1 x_("AJI_ESB_40820_40925",_"ESB_ECN_41505_41575")_ - 1 x_("AJI_ESB_40820_40925",_"ESB_SAW_41040_41100")_ - 1 x_("AJI_ESB_40820_40925",_"ESB_ERC_41010_41090")_ - 1 x_("AJI_ESB_40820_40925",_"ESB_ADB_41130_41210")_ - 1 x_("AJI_ESB_40820_40925",_"ESB_SZF_41300_41360")_ - 1 x_("AJI_ESB_40820_40925",_"ESB_MLX_41500_41575")_ - 1 x_("AJI_ESB_40820_40925",_"ESB_GNY_41260_41335")_ - 1 x_("AJI_ESB_40820_40925",_"ESB_ADA_41280_41340")_ - 1 x_("AJI_ESB_40820_40925",_"ESB_HTY_41510_41590")_ - 1 x_("AJI_ESB_40820_40925",_"ESB_YEI_41515_41575")_ - 1 x_("AJI_ESB_40820_40925",_"t")_ = 0
mp_c2_BAL_ESB_40830_40925_: 1 x_("ESB_BAL_40705_40795",_"BAL_ESB_40830_40925")_ - 1 x_("BAL_ESB_40830_40925",_"ESB_MQM_40970_41065")_ - 1 x_("BAL_ESB_40830_40925",_"ESB_ECN_40980_41050")_ - 1 x_("BAL_ESB_40830_40925",_"ESB_ECN_41505_41575")_ - 1 x_("BAL_ESB_40830_40925",_"ESB_SAW_41040_41100")_ - 1 x_("BAL_ESB_40830_40925",_"ESB_ERC_41010_41090")_ - 1 x_("BAL_ESB_40830_40925",_"ESB_ADB_41130_41210")_ - 1 x_("BAL_ESB_40830_40925",_"ESB_SZF_41300_41360")_ - 1 x_("BAL_ESB_40830_40925",_"ESB_MLX_41500_41575")_ - 1 x_("BAL_ESB_40830_40925",_"ESB_GNY_41260_41335")_ - 1 x_("BAL_ESB_40830_40925",_"ESB_ADA_41280_41340")_ - 1 x_("BAL_ESB_40830_40925",_"ESB_HTY_41510_41590")_ - 1 x_("BAL_ESB_40830_40925",_"ESB_YEI_41515_41575")_ - 1 x_("BAL_ESB_40830_40925",_"t")_ = 0
mp_c2_ESB_AYT_40860_40925_: 1 x_("TZX_ESB_39355_39435",_"ESB_AYT_40860_40925")_ + 1 x_("SAW_ESB_39360_39420",_"ESB_AYT_40860_40925")_ + 1 x_("BAL_ESB_39390_39485",_"ESB_AYT_40860_40925")_ + 1 x_("VAN_ESB_39455_39560",_"ESB_AYT_40860_40925")_ + 1 x_("MQM_ESB_39660_39755",_"ESB_AYT_40860_40925")_ + 1 x_("EZS_ESB_39665_39745",_"ESB_AYT_40860_40925")_ + 1 x_("ERC_ESB_39685_39765",_"ESB_AYT_40860_40925")_ + 1 x_("SAW_ESB_39720_39780",_"ESB_AYT_40860_40925")_ + 1 x_("ADB_ESB_39805_39880",_"ESB_AYT_40860_40925")_ + 1 x_("GNY_ESB_39930_40010",_"ESB_AYT_40860_40925")_ + 1 x_("ADA_ESB_39940_40005",_"ESB_AYT_40860_40925")_ + 1 x_("SZF_ESB_39955_40015",_"ESB_AYT_40860_40925")_ + 1 x_("ECN_ESB_40560_40630",_"ESB_AYT_40860_40925")_ + 1 x_("YEI_ESB_40560_40620",_"ESB_AYT_40860_40925")_ + 1 x_("MLX_ESB_40560_40635",_"ESB_AYT_40860_40925")_ + 1 x_("HTY_ESB_40560_40635",_"ESB_AYT_40860_40925")_ - 1 x_("ESB_AYT_40860_40925",_"AYT_ESB_40960_41025")_ - 1 x_("ESB_AYT_40860_40925",_"AYT_SAW_41130_41195")_ - 1 x_("ESB_AYT_40860_40925",_"t")_ = 0
mp_c2_VAN_ESB_40895_41000_: 1 x_("ESB_VAN_40765_40860",_"VAN_ESB_40895_41000")_ - 1 x_("VAN_ESB_40895_41000",_"ESB_ECN_41505_41575")_ - 1 x_("VAN_ESB_40895_41000",_"ESB_SAW_41040_41100")_ - 1 x_("VAN_ESB_40895_41000",_"ESB_ADB_41130_41210")_ - 1 x_("VAN_ESB_40895_41000",_"ESB_SZF_41300_41360")_ - 1 x_("VAN_ESB_40895_41000",_"ESB_MLX_41500_41575")_ - 1 x_("VAN_ESB_40895_41000",_"ESB_GNY_41260_41335")_ - 1 x_("VAN_ESB_40895_41000",_"ESB_ADA_41280_41340")_ - 1 x_("VAN_ESB_40895_41000",_"ESB_HTY_41510_41590")_ - 1 x_("VAN_ESB_40895_41000",_"ESB_YEI_41515_41575")_ - 1 x_("VAN_ESB_40895_41000",_"t")_ = 0
mp_c2_ESB_SAW_40920_40980_: 1 x_("BAL_ESB_39390_39485",_"ESB_SAW_40920_40980")_ + 1 x_("VAN_ESB_39455_39560",_"ESB_SAW_40920_40980")_ + 1 x_("MQM_ESB_39660_39755",_"ESB_SAW_40920_40980")_ + 1 x_("EZS_ESB_39665_39745",_"ESB_SAW_40920_40980")_ + 1 x_("ERC_ESB_39685_39765",_"ESB_SAW_40920_40980")_ + 1 x_("SAW_ESB_39720_39780",_"ESB_SAW_40920_40980")_ + 1 x_("ADB_ESB_39805_39880",_"ESB_SAW_40920_40980")_ + 1 x_("GNY_ESB_39930_40010",_"ESB_SAW_40920_40980")_ + 1 x_("ADA_ESB_39940_40005",_"ESB_SAW_40920_40980")_ + 1 x_("SZF_ESB_39955_40015",_"ESB_SAW_40920_40980")_ + 1 x_("ECN_ESB_40560_40630",_"ESB_SAW_40920_40980")_ + 1 x_("YEI_ESB_40560_40620",_"ESB_SAW_40920_40980")_ + 1 x_("MLX_ESB_40560_40635",_"ESB_SAW_40920_40980")_ + 1 x_("HTY_ESB_40560_40635",_"ESB_SAW_40920_40980")_ + 1 x_("TZX_ESB_40795_40875",_"ESB_SAW_40920_40980")_ + 1 x_("SAW_ESB_40800_40860",_"ESB_SAW_40920_40980")_ - 1 x_("ESB_SAW_40920_40980",_"SAW_ESB_41160_41220")_ - 1 x_("ESB_SAW_40920_40980",_"SAW_ADB_41250_41310")_ - 1 x_("ESB_SAW_40920_40980",_"SAW_KYA_41310_41380")_ - 1 x_("ESB_SAW_40920_40980",_"SAW_AYT_41025_41090")_ - 1 x_("ESB_SAW_40920_40980",_"SAW_ASR_41295_41380")_ - 1 x_("ESB_SAW_40920_40980",_"t")_ = 0
mp_c2_TZX_SAW_40920_41025_: 1 x_("ESB_TZX_40680_40760",_"TZX_SAW_40920_41025")_ + 1 x_("SAW_TZX_40785_40885",_"TZX_SAW_40920_41025")_ - 1 x_("TZX_SAW_40920_41025",_"SAW_ESB_41160_41220")_ - 1 x_("TZX_SAW_40920_41025",_"SAW_ADB_41250_41310")_ - 1 x_("TZX_SAW_40920_41025",_"SAW_KYA_41310_41380")_ - 1 x_("TZX_SAW_40920_41025",_"SAW_ASR_41295_41380")_ - 1 x_("TZX_SAW_40920_41025",_"t")_ = 0
mp_c2_AYT_ESB_40960_41025_: 1 x_("SAW_AYT_39585_39650",_"AYT_ESB_40960_41025")_ + 1 x_("ESB_AYT_40860_40925",_"AYT_ESB_40960_41025")_ - 1 x_("AYT_ESB_40960_41025",_"ESB_ECN_41505_41575")_ - 1 x_("AYT_ESB_40960_41025",_"ESB_ADB_41130_41210")_ - 1 x_("AYT_ESB_40960_41025",_"ESB_SZF_41300_41360")_ - 1 x_("AYT_ESB_40960_41025",_"ESB_MLX_41500_41575")_ - 1 x_("AYT_ESB_40960_41025",_"ESB_GNY_41260_41335")_ - 1 x_("AYT_ESB_40960_41025",_"ESB_ADA_41280_41340")_ - 1 x_("AYT_ESB_40960_41025",_"ESB_HTY_41510_41590")_ - 1 x_("AYT_ESB_40960_41025",_"ESB_YEI_41515_41575")_ - 1 x_("AYT_ESB_40960_41025",_"t")_ = 0
mp_c2_ESB_MQM_40970_41065_: 1 x_("VAN_ESB_39455_39560",_"ESB_MQM_40970_41065")_ + 1 x_("MQM_ESB_39660_39755",_"ESB_MQM_40970_41065")_ + 1 x_("EZS_ESB_39665_39745",_"ESB_MQM_40970_41065")_ + 1 x_("ERC_ESB_39685_39765",_"ESB_MQM_40970_41065")_ + 1 x_("SAW_ESB_39720_39780",_"ESB_MQM_40970_41065")_ + 1 x_("ADB_ESB_39805_39880",_"ESB_MQM_40970_41065")_ + 1 x_("GNY_ESB_39930_40010",_"ESB_MQM_40970_41065")_ + 1 x_("ADA_ESB_39940_40005",_"ESB_MQM_40970_41065")_ + 1 x_("SZF_ESB_39955_40015",_"ESB_MQM_40970_41065")_ + 1 x_("ECN_ESB_40560_40630",_"ESB_MQM_40970_41065")_ + 1 x_("YEI_ESB_40560_40620",_"ESB_MQM_40970_41065")_ + 1 x_("MLX_ESB_40560_40635",_"ESB_MQM_40970_41065")_ + 1 x_("HTY_ESB_40560_40635",_"ESB_MQM_40970_41065")_ + 1 x_("TZX_ESB_40795_40875",_"ESB_MQM_40970_41065")_ + 1 x_("SAW_ESB_40800_40860",_"ESB_MQM_40970_41065")_ + 1 x_("AJI_ESB_40820_40925",_"ESB_MQM_40970_41065")_ + 1 x_("BAL_ESB_40830_40925",_"ESB_MQM_40970_41065")_ - 1 x_("ESB_MQM_40970_41065",_"MQM_ESB_41100_41195")_ - 1 x_("ESB_MQM_40970_41065",_"t")_ = 0
mp_c2_ESB_ECN_40980_41050_: 1 x_("VAN_ESB_39455_39560",_"ESB_ECN_40980_41050")_ + 1 x_("MQM_ESB_39660_39755",_"ESB_ECN_40980_41050")_ + 1 x_("EZS_ESB_39665_39745",_"ESB_ECN_40980_41050")_ + 1 x_("ERC_ESB_39685_39765",_"ESB_ECN_40980_41050")_ + 1 x_("SAW_ESB_39720_39780",_"ESB_ECN_40980_41050")_ + 1 x_("ADB_ESB_39805_39880",_"ESB_ECN_40980_41050")_ + 1 x_("GNY_ESB_39930_40010",_"ESB_ECN_40980_41050")_ + 1 x_("ADA_ESB_39940_40005",_"ESB_ECN_40980_41050")_ + 1 x_("SZF_ESB_39955_40015",_"ESB_ECN_40980_41050")_ + 1 x_("ECN_ESB_40560_40630",_"ESB_ECN_40980_41050")_ + 1 x_("YEI_ESB_40560_40620",_"ESB_ECN_40980_41050")_ + 1 x_("MLX_ESB_40560_40635",_"ESB_ECN_40980_41050")_ + 1 x_("HTY_ESB_40560_40635",_"ESB_ECN_40980_41050")_ + 1 x_("TZX_ESB_40795_40875",_"ESB_ECN_40980_41050")_ + 1 x_("SAW_ESB_40800_40860",_"ESB_ECN_40980_41050")_ + 1 x_("AJI_ESB_40820_40925",_"ESB_ECN_40980_41050")_ + 1 x_("BAL_ESB_40830_40925",_"ESB_ECN_40980_41050")_ - 1 x_("ESB_ECN_40980_41050",_"ECN_HTY_41160_41225")_ - 1 x_("ESB_ECN_40980_41050",_"ECN_ESB_41375_41445")_ - 1 x_("ESB_ECN_40980_41050",_"t")_ = 0
mp_c2_ESB_ERC_41010_41090_: 1 x_("MQM_ESB_39660_39755",_"ESB_ERC_41010_41090")_ + 1 x_("EZS_ESB_39665_39745",_"ESB_ERC_41010_41090")_ + 1 x_("ERC_ESB_39685_39765",_"ESB_ERC_41010_41090")_ + 1 x_("SAW_ESB_39720_39780",_"ESB_ERC_41010_41090")_ + 1 x_("ADB_ESB_39805_39880",_"ESB_ERC_41010_41090")_ + 1 x_("GNY_ESB_39930_40010",_"ESB_ERC_41010_41090")_ + 1 x_("ADA_ESB_39940_40005",_"ESB_ERC_41010_41090")_ + 1 x_("SZF_ESB_39955_40015",_"ESB_ERC_41010_41090")_ + 1 x_("ECN_ESB_40560_40630",_"ESB_ERC_41010_41090")_ + 1 x_("YEI_ESB_40560_40620",_"ESB_ERC_41010_41090")_ + 1 x_("MLX_ESB_40560_40635",_"ESB_ERC_41010_41090")_ + 1 x_("HTY_ESB_40560_40635",_"ESB_ERC_41010_41090")_ + 1 x_("TZX_ESB_40795_40875",_"ESB_ERC_41010_41090")_ + 1 x_("SAW_ESB_40800_40860",_"ESB_ERC_41010_41090")_ + 1 x_("AJI_ESB_40820_40925",_"ESB_ERC_41010_41090")_ + 1 x_("BAL_ESB_40830_40925",_"ESB_ERC_41010_41090")_ - 1 x_("ESB_ERC_41010_41090",_"ERC_ESB_41125_41205")_ - 1 x_("ESB_ERC_41010_41090",_"t")_ = 0
mp_c2_SAW_VAS_41010_41090_: 1 x_("TZX_SAW_39480_39585",_"SAW_VAS_41010_41090")_ + 1 x_("NAJ_SAW_39555_39710",_"SAW_VAS_41010_41090")_ + 1 x_("ESB_SAW_39600_39660",_"SAW_VAS_41010_41090")_ + 1 x_("AYT_SAW_39690_39755",_"SAW_VAS_41010_41090")_ + 1 x_("ADB_SAW_39905_39965",_"SAW_VAS_41010_41090")_ + 1 x_("ASR_SAW_39975_40065",_"SAW_VAS_41010_41090")_ + 1 x_("ADB_SAW_40655_40715",_"SAW_VAS_41010_41090")_ - 1 x_("SAW_VAS_41010_41090",_"VAS_SAW_41125_41205")_ - 1 x_("SAW_VAS_41010_41090",_"t")_ = 0
mp_c2_SAW_AYT_41025_41090_: 1 x_("TZX_SAW_39480_39585",_"SAW_AYT_41025_41090")_ + 1 x_("NAJ_SAW_39555_39710",_"SAW_AYT_41025_41090")_ + 1 x_("ESB_SAW_39600_39660",_"SAW_AYT_41025_41090")_ + 1 x_("AYT_SAW_39690_39755",_"SAW_AYT_41025_41090")_ + 1 x_("ADB_SAW_39905_39965",_"SAW_AYT_41025_41090")_ + 1 x_("ASR_SAW_39975_40065",_"SAW_AYT_41025_41090")_ + 1 x_("ADB_SAW_40655_40715",_"SAW_AYT_41025_41090")_ + 1 x_("ESB_SAW_40920_40980",_"SAW_AYT_41025_41090")_ - 1 x_("SAW_AYT_41025_41090",_"AYT_SAW_41130_41195")_ - 1 x_("SAW_AYT_41025_41090",_"t")_ = 0
mp_c2_ESB_SAW_41040_41100_: 1 x_("MQM_ESB_39660_39755",_"ESB_SAW_41040_41100")_ + 1 x_("EZS_ESB_39665_39745",_"ESB_SAW_41040_41100")_ + 1 x_("ERC_ESB_39685_39765",_"ESB_SAW_41040_41100")_ + 1 x_("SAW_ESB_39720_39780",_"ESB_SAW_41040_41100")_ + 1 x_("ADB_ESB_39805_39880",_"ESB_SAW_41040_41100")_ + 1 x_("GNY_ESB_39930_40010",_"ESB_SAW_41040_41100")_ + 1 x_("ADA_ESB_39940_40005",_"ESB_SAW_41040_41100")_ + 1 x_("SZF_ESB_39955_40015",_"ESB_SAW_41040_41100")_ + 1 x_("ECN_ESB_40560_40630",_"ESB_SAW_41040_41100")_ + 1 x_("YEI_ESB_40560_40620",_"ESB_SAW_41040_41100")_ + 1 x_("MLX_ESB_40560_40635",_"ESB_SAW_41040_41100")_ + 1 x_("HTY_ESB_40560_40635",_"ESB_SAW_41040_41100")_ + 1 x_("TZX_ESB_40795_40875",_"ESB_SAW_41040_41100")_ + 1 x_("SAW_ESB_40800_40860",_"ESB_SAW_41040_41100")_ + 1 x_("AJI_ESB_40820_40925",_"ESB_SAW_41040_41100")_ + 1 x_("BAL_ESB_40830_40925",_"ESB_SAW_41040_41100")_ + 1 x_("VAN_ESB_40895_41000",_"ESB_SAW_41040_41100")_ - 1 x_("ESB_SAW_41040_41100",_"SAW_ESB_41160_41220")_ - 1 x_("ESB_SAW_41040_41100",_"SAW_ADB_41250_41310")_ - 1 x_("ESB_SAW_41040_41100",_"SAW_KYA_41310_41380")_ - 1 x_("ESB_SAW_41040_41100",_"SAW_ASR_41295_41380")_ - 1 x_("ESB_SAW_41040_41100",_"t")_ = 0
mp_c2_MQM_ESB_41100_41195_: 1 x_("ESB_MQM_40970_41065",_"MQM_ESB_41100_41195")_ - 1 x_("MQM_ESB_41100_41195",_"ESB_ECN_41505_41575")_ - 1 x_("MQM_ESB_41100_41195",_"ESB_SZF_41300_41360")_ - 1 x_("MQM_ESB_41100_41195",_"ESB_MLX_41500_41575")_ - 1 x_("MQM_ESB_41100_41195",_"ESB_GNY_41260_41335")_ - 1 x_("MQM_ESB_41100_41195",_"ESB_ADA_41280_41340")_ - 1 x_("MQM_ESB_41100_41195",_"ESB_HTY_41510_41590")_ - 1 x_("MQM_ESB_41100_41195",_"ESB_YEI_41515_41575")_ - 1 x_("MQM_ESB_41100_41195",_"t")_ = 0
mp_c2_ERC_ESB_41125_41205_: 1 x_("ESB_ERC_41010_41090",_"ERC_ESB_41125_41205")_ - 1 x_("ERC_ESB_41125_41205",_"ESB_ECN_41505_41575")_ - 1 x_("ERC_ESB_41125_41205",_"ESB_SZF_41300_41360")_ - 1 x_("ERC_ESB_41125_41205",_"ESB_MLX_41500_41575")_ - 1 x_("ERC_ESB_41125_41205",_"ESB_GNY_41260_41335")_ - 1 x_("ERC_ESB_41125_41205",_"ESB_ADA_41280_41340")_ - 1 x_("ERC_ESB_41125_41205",_"ESB_HTY_41510_41590")_ - 1 x_("ERC_ESB_41125_41205",_"ESB_YEI_41515_41575")_ - 1 x_("ERC_ESB_41125_41205",_"t")_ = 0
mp_c2_VAS_SAW_41125_41205_: 1 x_("SAW_VAS_41010_41090",_"VAS_SAW_41125_41205")_ - 1 x_("VAS_SAW_41125_41205",_"SAW_ADB_41250_41310")_ - 1 x_("VAS_SAW_41125_41205",_"SAW_KYA_41310_41380")_ - 1 x_("VAS_SAW_41125_41205",_"SAW_ASR_41295_41380")_ - 1 x_("VAS_SAW_41125_41205",_"t")_ = 0
mp_c2_ESB_ADB_41130_41210_: 1 x_("MQM_ESB_39660_39755",_"ESB_ADB_41130_41210")_ + 1 x_("EZS_ESB_39665_39745",_"ESB_ADB_41130_41210")_ + 1 x_("ERC_ESB_39685_39765",_"ESB_ADB_41130_41210")_ + 1 x_("SAW_ESB_39720_39780",_"ESB_ADB_41130_41210")_ + 1 x_("ADB_ESB_39805_39880",_"ESB_ADB_41130_41210")_ + 1 x_("GNY_ESB_39930_40010",_"ESB_ADB_41130_41210")_ + 1 x_("ADA_ESB_39940_40005",_"ESB_ADB_41130_41210")_ + 1 x_("SZF_ESB_39955_40015",_"ESB_ADB_41130_41210")_ + 1 x_("ECN_ESB_40560_40630",_"ESB_ADB_41130_41210")_ + 1 x_("YEI_ESB_40560_40620",_"ESB_ADB_41130_41210")_ + 1 x_("MLX_ESB_40560_40635",_"ESB_ADB_41130_41210")_ + 1 x_("HTY_ESB_40560_40635",_"ESB_ADB_41130_41210")_ + 1 x_("TZX_ESB_40795_40875",_"ESB_ADB_41130_41210")_ + 1 x_("SAW_ESB_40800_40860",_"ESB_ADB_41130_41210")_ + 1 x_("AJI_ESB_40820_40925",_"ESB_ADB_41130_41210")_ + 1 x_("BAL_ESB_40830_40925",_"ESB_ADB_41130_41210")_ + 1 x_("VAN_ESB_40895_41000",_"ESB_ADB_41130_41210")_ + 1 x_("AYT_ESB_40960_41025",_"ESB_ADB_41130_41210")_ - 1 x_("ESB_ADB_41130_41210",_"ADB_ESB_41245_41320")_ - 1 x_("ESB_ADB_41130_41210",_"ADB_SAW_41345_41405")_ - 1 x_("ESB_ADB_41130_41210",_"t")_ = 0
mp_c2_AYT_SAW_41130_41195_: 1 x_("ESB_AYT_40860_40925",_"AYT_SAW_41130_41195")_ + 1 x_("SAW_AYT_41025_41090",_"AYT_SAW_41130_41195")_ - 1 x_("AYT_SAW_41130_41195",_"SAW_ADB_41250_41310")_ - 1 x_("AYT_SAW_41130_41195",_"SAW_KYA_41310_41380")_ - 1 x_("AYT_SAW_41130_41195",_"SAW_ASR_41295_41380")_ - 1 x_("AYT_SAW_41130_41195",_"t")_ = 0
mp_c2_SAW_ESB_41160_41220_: 1 x_("AYT_SAW_39690_39755",_"SAW_ESB_41160_41220")_ + 1 x_("ADB_SAW_39905_39965",_"SAW_ESB_41160_41220")_ + 1 x_("ASR_SAW_39975_40065",_"SAW_ESB_41160_41220")_ + 1 x_("ADB_SAW_40655_40715",_"SAW_ESB_41160_41220")_ + 1 x_("ESB_SAW_40920_40980",_"SAW_ESB_41160_41220")_ + 1 x_("TZX_SAW_40920_41025",_"SAW_ESB_41160_41220")_ + 1 x_("ESB_SAW_41040_41100",_"SAW_ESB_41160_41220")_ - 1 x_("SAW_ESB_41160_41220",_"ESB_ECN_41505_41575")_ - 1 x_("SAW_ESB_41160_41220",_"ESB_SZF_41300_41360")_ - 1 x_("SAW_ESB_41160_41220",_"ESB_MLX_41500_41575")_ - 1 x_("SAW_ESB_41160_41220",_"ESB_GNY_41260_41335")_ - 1 x_("SAW_ESB_41160_41220",_"ESB_ADA_41280_41340")_ - 1 x_("SAW_ESB_41160_41220",_"ESB_HTY_41510_41590")_ - 1 x_("SAW_ESB_41160_41220",_"ESB_YEI_41515_41575")_ - 1 x_("SAW_ESB_41160_41220",_"t")_ = 0
mp_c2_ECN_HTY_41160_41225_: 1 x_("ESB_ECN_40065_40135",_"ECN_HTY_41160_41225")_ + 1 x_("ESB_ECN_40980_41050",_"ECN_HTY_41160_41225")_ - 1 x_("ECN_HTY_41160_41225",_"HTY_ECN_41265_41330")_ - 1 x_("ECN_HTY_41160_41225",_"t")_ = 0
mp_c2_ADB_ESB_41245_41320_: 1 x_("SAW_ADB_39810_39870",_"ADB_ESB_41245_41320")_ + 1 x_("SAW_ADB_40560_40620",_"ADB_ESB_41245_41320")_ + 1 x_("ESB_ADB_41130_41210",_"ADB_ESB_41245_41320")_ - 1 x_("ADB_ESB_41245_41320",_"ESB_ECN_41505_41575")_ - 1 x_("ADB_ESB_41245_41320",_"ESB_MLX_41500_41575")_ - 1 x_("ADB_ESB_41245_41320",_"ESB_HTY_41510_41590")_ - 1 x_("ADB_ESB_41245_41320",_"ESB_YEI_41515_41575")_ - 1 x_("ADB_ESB_41245_41320",_"t")_ = 0
mp_c2_SAW_ADB_41250_41310_: 1 x_("ADB_SAW_39905_39965",_"SAW_ADB_41250_41310")_ + 1 x_("ASR_SAW_39975_40065",_"SAW_ADB_41250_41310")_ + 1 x_("ADB_SAW_40655_40715",_"SAW_ADB_41250_41310")_ + 1 x_("ESB_SAW_40920_40980",_"SAW_ADB_41250_41310")_ + 1 x_("TZX_SAW_40920_41025",_"SAW_ADB_41250_41310")_ + 1 x_("ESB_SAW_41040_41100",_"SAW_ADB_41250_41310")_ + 1 x_("VAS_SAW_41125_41205",_"SAW_ADB_41250_41310")_ + 1 x_("AYT_SAW_41130_41195",_"SAW_ADB_41250_41310")_ - 1 x_("SAW_ADB_41250_41310",_"ADB_SAW_41345_41405")_ - 1 x_("SAW_ADB_41250_41310",_"t")_ = 0
mp_c2_ESB_GNY_41260_41335_: 1 x_("ADB_ESB_39805_39880",_"ESB_GNY_41260_41335")_ + 1 x_("GNY_ESB_39930_40010",_"ESB_GNY_41260_41335")_ + 1 x_("ADA_ESB_39940_40005",_"ESB_GNY_41260_41335")_ + 1 x_("SZF_ESB_39955_40015",_"ESB_GNY_41260_41335")_ + 1 x_("ECN_ESB_40560_40630",_"ESB_GNY_41260_41335")_ + 1 x_("YEI_ESB_40560_40620",_"ESB_GNY_41260_41335")_ + 1 x_("MLX_ESB_40560_40635",_"ESB_GNY_41260_41335")_ + 1 x_("HTY_ESB_40560_40635",_"ESB_GNY_41260_41335")_ + 1 x_("TZX_ESB_40795_40875",_"ESB_GNY_41260_41335")_ + 1 x_("SAW_ESB_40800_40860",_"ESB_GNY_41260_41335")_ + 1 x_("AJI_ESB_40820_40925",_"ESB_GNY_41260_41335")_ + 1 x_("BAL_ESB_40830_40925",_"ESB_GNY_41260_41335")_ + 1 x_("VAN_ESB_40895_41000",_"ESB_GNY_41260_41335")_ + 1 x_("AYT_ESB_40960_41025",_"ESB_GNY_41260_41335")_ + 1 x_("MQM_ESB_41100_41195",_"ESB_GNY_41260_41335")_ + 1 x_("ERC_ESB_41125_41205",_"ESB_GNY_41260_41335")_ + 1 x_("SAW_ESB_41160_41220",_"ESB_GNY_41260_41335")_ - 1 x_("ESB_GNY_41260_41335",_"GNY_ESB_41370_41450")_ - 1 x_("ESB_GNY_41260_41335",_"t")_ = 0
mp_c2_HTY_ECN_41265_41330_: 1 x_("ESB_HTY_40070_40150",_"HTY_ECN_41265_41330")_ + 1 x_("ECN_HTY_41160_41225",_"HTY_ECN_41265_41330")_ - 1 x_("HTY_ECN_41265_41330",_"ECN_ESB_41375_41445")_ - 1 x_("HTY_ECN_41265_41330",_"t")_ = 0
mp_c2_ESB_ADA_41280_41340_: 1 x_("ADB_ESB_39805_39880",_"ESB_ADA_41280_41340")_ + 1 x_("GNY_ESB_39930_40010",_"ESB_ADA_41280_41340")_ + 1 x_("ADA_ESB_39940_40005",_"ESB_ADA_41280_41340")_ + 1 x_("SZF_ESB_39955_40015",_"ESB_ADA_41280_41340")_ + 1 x_("ECN_ESB_40560_40630",_"ESB_ADA_41280_41340")_ + 1 x_("YEI_ESB_40560_40620",_"ESB_ADA_41280_41340")_ + 1 x_("MLX_ESB_40560_40635",_"ESB_ADA_41280_41340")_ + 1 x_("HTY_ESB_40560_40635",_"ESB_ADA_41280_41340")_ + 1 x_("TZX_ESB_40795_40875",_"ESB_ADA_41280_41340")_ + 1 x_("SAW_ESB_40800_40860",_"ESB_ADA_41280_41340")_ + 1 x_("AJI_ESB_40820_40925",_"ESB_ADA_41280_41340")_ + 1 x_("BAL_ESB_40830_40925",_"ESB_ADA_41280_41340")_ + 1 x_("VAN_ESB_40895_41000",_"ESB_ADA_41280_41340")_ + 1 x_("AYT_ESB_40960_41025",_"ESB_ADA_41280_41340")_ + 1 x_("MQM_ESB_41100_41195",_"ESB_ADA_41280_41340")_ + 1 x_("ERC_ESB_41125_41205",_"ESB_ADA_41280_41340")_ + 1 x_("SAW_ESB_41160_41220",_"ESB_ADA_41280_41340")_ - 1 x_("ESB_ADA_41280_41340",_"ADA_ESB_41380_41445")_ - 1 x_("ESB_ADA_41280_41340",_"t")_ = 0
mp_c2_SAW_ASR_41295_41380_: 1 x_("ADB_SAW_39905_39965",_"SAW_ASR_41295_41380")_ + 1 x_("ASR_SAW_39975_40065",_"SAW_ASR_41295_41380")_ + 1 x_("ADB_SAW_40655_40715",_"SAW_ASR_41295_41380")_ + 1 x_("ESB_SAW_40920_40980",_"SAW_ASR_41295_41380")_ + 1 x_("TZX_SAW_40920_41025",_"SAW_ASR_41295_41380")_ + 1 x_("ESB_SAW_41040_41100",_"SAW_ASR_41295_41380")_ + 1 x_("VAS_SAW_41125_41205",_"SAW_ASR_41295_41380")_ + 1 x_("AYT_SAW_41130_41195",_"SAW_ASR_41295_41380")_ - 1 x_("SAW_ASR_41295_41380",_"ASR_SAW_41415_41505")_ - 1 x_("SAW_ASR_41295_41380",_"t")_ = 0
mp_c2_ESB_SZF_41300_41360_: 1 x_("ADB_ESB_39805_39880",_"ESB_SZF_41300_41360")_ + 1 x_("GNY_ESB_39930_40010",_"ESB_SZF_41300_41360")_ + 1 x_("ADA_ESB_39940_40005",_"ESB_SZF_41300_41360")_ + 1 x_("SZF_ESB_39955_40015",_"ESB_SZF_41300_41360")_ + 1 x_("ECN_ESB_40560_40630",_"ESB_SZF_41300_41360")_ + 1 x_("YEI_ESB_40560_40620",_"ESB_SZF_41300_41360")_ + 1 x_("MLX_ESB_40560_40635",_"ESB_SZF_41300_41360")_ + 1 x_("HTY_ESB_40560_40635",_"ESB_SZF_41300_41360")_ + 1 x_("TZX_ESB_40795_40875",_"ESB_SZF_41300_41360")_ + 1 x_("SAW_ESB_40800_40860",_"ESB_SZF_41300_41360")_ + 1 x_("AJI_ESB_40820_40925",_"ESB_SZF_41300_41360")_ + 1 x_("BAL_ESB_40830_40925",_"ESB_SZF_41300_41360")_ + 1 x_("VAN_ESB_40895_41000",_"ESB_SZF_41300_41360")_ + 1 x_("AYT_ESB_40960_41025",_"ESB_SZF_41300_41360")_ + 1 x_("MQM_ESB_41100_41195",_"ESB_SZF_41300_41360")_ + 1 x_("ERC_ESB_41125_41205",_"ESB_SZF_41300_41360")_ + 1 x_("SAW_ESB_41160_41220",_"ESB_SZF_41300_41360")_ - 1 x_("ESB_SZF_41300_41360",_"SZF_ESB_41395_41455")_ - 1 x_("ESB_SZF_41300_41360",_"t")_ = 0
mp_c2_SAW_KYA_41310_41380_: 1 x_("ADB_SAW_39905_39965",_"SAW_KYA_41310_41380")_ + 1 x_("ASR_SAW_39975_40065",_"SAW_KYA_41310_41380")_ + 1 x_("ADB_SAW_40655_40715",_"SAW_KYA_41310_41380")_ + 1 x_("ESB_SAW_40920_40980",_"SAW_KYA_41310_41380")_ + 1 x_("TZX_SAW_40920_41025",_"SAW_KYA_41310_41380")_ + 1 x_("ESB_SAW_41040_41100",_"SAW_KYA_41310_41380")_ + 1 x_("VAS_SAW_41125_41205",_"SAW_KYA_41310_41380")_ + 1 x_("AYT_SAW_41130_41195",_"SAW_KYA_41310_41380")_ - 1 x_("SAW_KYA_41310_41380",_"KYA_SAW_41415_41485")_ - 1 x_("SAW_KYA_41310_41380",_"t")_ = 0
mp_c2_ADB_SAW_41345_41405_: 1 x_("SAW_ADB_40560_40620",_"ADB_SAW_41345_41405")_ + 1 x_("ESB_ADB_41130_41210",_"ADB_SAW_41345_41405")_ + 1 x_("SAW_ADB_41250_41310",_"ADB_SAW_41345_41405")_ - 1 x_("ADB_SAW_41345_41405",_"t")_ = 0
mp_c2_GNY_ESB_41370_41450_: 1 x_("ESB_GNY_41260_41335",_"GNY_ESB_41370_41450")_ - 1 x_("GNY_ESB_41370_41450",_"ESB_ECN_41505_41575")_ - 1 x_("GNY_ESB_41370_41450",_"ESB_MLX_41500_41575")_ - 1 x_("GNY_ESB_41370_41450",_"ESB_HTY_41510_41590")_ - 1 x_("GNY_ESB_41370_41450",_"ESB_YEI_41515_41575")_ - 1 x_("GNY_ESB_41370_41450",_"t")_ = 0
mp_c2_ECN_ESB_41375_41445_: 1 x_("ESB_ECN_40065_40135",_"ECN_ESB_41375_41445")_ + 1 x_("ESB_ECN_40980_41050",_"ECN_ESB_41375_41445")_ + 1 x_("HTY_ECN_41265_41330",_"ECN_ESB_41375_41445")_ - 1 x_("ECN_ESB_41375_41445",_"ESB_ECN_41505_41575")_ - 1 x_("ECN_ESB_41375_41445",_"ESB_MLX_41500_41575")_ - 1 x_("ECN_ESB_41375_41445",_"ESB_HTY_41510_41590")_ - 1 x_("ECN_ESB_41375_41445",_"ESB_YEI_41515_41575")_ - 1 x_("ECN_ESB_41375_41445",_"t")_ = 0
mp_c2_ADA_ESB_41380_41445_: 1 x_("ESB_ADA_41280_41340",_"ADA_ESB_41380_41445")_ - 1 x_("ADA_ESB_41380_41445",_"ESB_ECN_41505_41575")_ - 1 x_("ADA_ESB_41380_41445",_"ESB_MLX_41500_41575")_ - 1 x_("ADA_ESB_41380_41445",_"ESB_HTY_41510_41590")_ - 1 x_("ADA_ESB_41380_41445",_"ESB_YEI_41515_41575")_ - 1 x_("ADA_ESB_41380_41445",_"t")_ = 0
mp_c2_SZF_ESB_41395_41455_: 1 x_("ESB_SZF_41300_41360",_"SZF_ESB_41395_41455")_ - 1 x_("SZF_ESB_41395_41455",_"ESB_ECN_41505_41575")_ - 1 x_("SZF_ESB_41395_41455",_"ESB_MLX_41500_41575")_ - 1 x_("SZF_ESB_41395_41455",_"ESB_HTY_41510_41590")_ - 1 x_("SZF_ESB_41395_41455",_"ESB_YEI_41515_41575")_ - 1 x_("SZF_ESB_41395_41455",_"t")_ = 0
mp_c2_ASR_SAW_41415_41505_: 1 x_("SAW_ASR_41295_41380",_"ASR_SAW_41415_41505")_ - 1 x_("ASR_SAW_41415_41505",_"t")_ = 0
mp_c2_KYA_SAW_41415_41485_: 1 x_("SAW_KYA_41310_41380",_"KYA_SAW_41415_41485")_ - 1 x_("KYA_SAW_41415_41485",_"t")_ = 0
mp_c2_ESB_MLX_41500_41575_: 1 x_("ECN_ESB_40560_40630",_"ESB_MLX_41500_41575")_ + 1 x_("YEI_ESB_40560_40620",_"ESB_MLX_41500_41575")_ + 1 x_("MLX_ESB_40560_40635",_"ESB_MLX_41500_41575")_ + 1 x_("HTY_ESB_40560_40635",_"ESB_MLX_41500_41575")_ + 1 x_("TZX_ESB_40795_40875",_"ESB_MLX_41500_41575")_ + 1 x_("SAW_ESB_40800_40860",_"ESB_MLX_41500_41575")_ + 1 x_("AJI_ESB_40820_40925",_"ESB_MLX_41500_41575")_ + 1 x_("BAL_ESB_40830_40925",_"ESB_MLX_41500_41575")_ + 1 x_("VAN_ESB_40895_41000",_"ESB_MLX_41500_41575")_ + 1 x_("AYT_ESB_40960_41025",_"ESB_MLX_41500_41575")_ + 1 x_("MQM_ESB_41100_41195",_"ESB_MLX_41500_41575")_ + 1 x_("ERC_ESB_41125_41205",_"ESB_MLX_41500_41575")_ + 1 x_("SAW_ESB_41160_41220",_"ESB_MLX_41500_41575")_ + 1 x_("ADB_ESB_41245_41320",_"ESB_MLX_41500_41575")_ + 1 x_("GNY_ESB_41370_41450",_"ESB_MLX_41500_41575")_ + 1 x_("ECN_ESB_41375_41445",_"ESB_MLX_41500_41575")_ + 1 x_("ADA_ESB_41380_41445",_"ESB_MLX_41500_41575")_ + 1 x_("SZF_ESB_41395_41455",_"ESB_MLX_41500_41575")_ - 1 x_("ESB_MLX_41500_41575",_"t")_ = 0
mp_c2_ESB_ECN_41505_41575_: 1 x_("ECN_ESB_40560_40630",_"ESB_ECN_41505_41575")_ + 1 x_("YEI_ESB_40560_40620",_"ESB_ECN_41505_41575")_ + 1 x_("MLX_ESB_40560_40635",_"ESB_ECN_41505_41575")_ + 1 x_("HTY_ESB_40560_40635",_"ESB_ECN_41505_41575")_ + 1 x_("TZX_ESB_40795_40875",_"ESB_ECN_41505_41575")_ + 1 x_("SAW_ESB_40800_40860",_"ESB_ECN_41505_41575")_ + 1 x_("AJI_ESB_40820_40925",_"ESB_ECN_41505_41575")_ + 1 x_("BAL_ESB_40830_40925",_"ESB_ECN_41505_41575")_ + 1 x_("VAN_ESB_40895_41000",_"ESB_ECN_41505_41575")_ + 1 x_("AYT_ESB_40960_41025",_"ESB_ECN_41505_41575")_ + 1 x_("MQM_ESB_41100_41195",_"ESB_ECN_41505_41575")_ + 1 x_("ERC_ESB_41125_41205",_"ESB_ECN_41505_41575")_ + 1 x_("SAW_ESB_41160_41220",_"ESB_ECN_41505_41575")_ + 1 x_("ADB_ESB_41245_41320",_"ESB_ECN_41505_41575")_ + 1 x_("GNY_ESB_41370_41450",_"ESB_ECN_41505_41575")_ + 1 x_("ECN_ESB_41375_41445",_"ESB_ECN_41505_41575")_ + 1 x_("ADA_ESB_41380_41445",_"ESB_ECN_41505_41575")_ + 1 x_("SZF_ESB_41395_41455",_"ESB_ECN_41505_41575")_ - 1 x_("ESB_ECN_41505_41575",_"t")_ = 0
mp_c2_ESB_HTY_41510_41590_: 1 x_("ECN_ESB_40560_40630",_"ESB_HTY_41510_41590")_ + 1 x_("YEI_ESB_40560_40620",_"ESB_HTY_41510_41590")_ + 1 x_("MLX_ESB_40560_40635",_"ESB_HTY_41510_41590")_ + 1 x_("HTY_ESB_40560_40635",_"ESB_HTY_41510_41590")_ + 1 x_("TZX_ESB_40795_40875",_"ESB_HTY_41510_41590")_ + 1 x_("SAW_ESB_40800_40860",_"ESB_HTY_41510_41590")_ + 1 x_("AJI_ESB_40820_40925",_"ESB_HTY_41510_41590")_ + 1 x_("BAL_ESB_40830_40925",_"ESB_HTY_41510_41590")_ + 1 x_("VAN_ESB_40895_41000",_"ESB_HTY_41510_41590")_ + 1 x_("AYT_ESB_40960_41025",_"ESB_HTY_41510_41590")_ + 1 x_("MQM_ESB_41100_41195",_"ESB_HTY_41510_41590")_ + 1 x_("ERC_ESB_41125_41205",_"ESB_HTY_41510_41590")_ + 1 x_("SAW_ESB_41160_41220",_"ESB_HTY_41510_41590")_ + 1 x_("ADB_ESB_41245_41320",_"ESB_HTY_41510_41590")_ + 1 x_("GNY_ESB_41370_41450",_"ESB_HTY_41510_41590")_ + 1 x_("ECN_ESB_41375_41445",_"ESB_HTY_41510_41590")_ + 1 x_("ADA_ESB_41380_41445",_"ESB_HTY_41510_41590")_ + 1 x_("SZF_ESB_41395_41455",_"ESB_HTY_41510_41590")_ - 1 x_("ESB_HTY_41510_41590",_"t")_ = 0
mp_c2_ESB_YEI_41515_41575_: 1 x_("ECN_ESB_40560_40630",_"ESB_YEI_41515_41575")_ + 1 x_("YEI_ESB_40560_40620",_"ESB_YEI_41515_41575")_ + 1 x_("MLX_ESB_40560_40635",_"ESB_YEI_41515_41575")_ + 1 x_("HTY_ESB_40560_40635",_"ESB_YEI_41515_41575")_ + 1 x_("TZX_ESB_40795_40875",_"ESB_YEI_41515_41575")_ + 1 x_("SAW_ESB_40800_40860",_"ESB_YEI_41515_41575")_ + 1 x_("AJI_ESB_40820_40925",_"ESB_YEI_41515_41575")_ + 1 x_("BAL_ESB_40830_40925",_"ESB_YEI_41515_41575")_ + 1 x_("VAN_ESB_40895_41000",_"ESB_YEI_41515_41575")_ + 1 x_("AYT_ESB_40960_41025",_"ESB_YEI_41515_41575")_ + 1 x_("MQM_ESB_41100_41195",_"ESB_YEI_41515_41575")_ + 1 x_("ERC_ESB_41125_41205",_"ESB_YEI_41515_41575")_ + 1 x_("SAW_ESB_41160_41220",_"ESB_YEI_41515_41575")_ + 1 x_("ADB_ESB_41245_41320",_"ESB_YEI_41515_41575")_ + 1 x_("GNY_ESB_41370_41450",_"ESB_YEI_41515_41575")_ + 1 x_("ECN_ESB_41375_41445",_"ESB_YEI_41515_41575")_ + 1 x_("ADA_ESB_41380_41445",_"ESB_YEI_41515_41575")_ + 1 x_("SZF_ESB_41395_41455",_"ESB_YEI_41515_41575")_ - 1 x_("ESB_YEI_41515_41575",_"t")_ = 0
Bounds
Z >= 0
Binary
x_("s",_"N121")_
x_("s",_"N122")_
x_("s",_"N123")_
x_("s",_"N124")_
x_("s",_"N125")_
x_("s",_"N126")_
x_("s",_"N127")_
x_("s",_"N128")_
x_("N123",_"SAW_ADB_31920_31980")_
x_("N126",_"SAW_ADB_31920_31980")_
x_("N128",_"SAW_ADB_31920_31980")_
x_("N124",_"ECN_ESB_31920_31990")_
x_("N122",_"YEI_ESB_31920_31980")_
x_("N121",_"MLX_ESB_31920_31995")_
x_("N127",_"HTY_ESB_31920_31995")_
x_("N123",_"SAW_ESB_31980_32040")_
x_("N126",_"SAW_ESB_31980_32040")_
x_("N128",_"SAW_ESB_31980_32040")_
x_("N125",_"ESB_SAW_32040_32100")_
x_("N125",_"ESB_TZX_32040_32120")_
x_("N125",_"ESB_AJI_32050_32145")_
x_("N125",_"ESB_BAL_32065_32155")_
x_("N125",_"ESB_VAN_32125_32220")_
x_("N123",_"SAW_TZX_32145_32245")_
x_("N126",_"SAW_TZX_32145_32245")_
x_("N128",_"SAW_TZX_32145_32245")_
x_("N123",_"SAW_ESB_32160_32220")_
x_("N126",_"SAW_ESB_32160_32220")_
x_("N128",_"SAW_ESB_32160_32220")_
x_("N125",_"ESB_SAW_32280_32340")_
x_("N125",_"ESB_MQM_32330_32425")_
x_("N125",_"ESB_ECN_32340_32410")_
x_("N125",_"ESB_ERC_32370_32450")_
x_("N123",_"SAW_VAS_32370_32450")_
x_("N126",_"SAW_VAS_32370_32450")_
x_("N128",_"SAW_VAS_32370_32450")_
x_("N123",_"SAW_AYT_32385_32450")_
x_("N126",_"SAW_AYT_32385_32450")_
x_("N128",_"SAW_AYT_32385_32450")_
x_("N125",_"ESB_SAW_32400_32460")_
x_("N125",_"ESB_ADB_32490_32570")_
x_("N123",_"SAW_ESB_32520_32580")_
x_("N126",_"SAW_ESB_32520_32580")_
x_("N128",_"SAW_ESB_32520_32580")_
x_("N124",_"ECN_HTY_32520_32585")_
x_("N123",_"SAW_ADB_32610_32670")_
x_("N126",_"SAW_ADB_32610_32670")_
x_("N128",_"SAW_ADB_32610_32670")_
x_("N125",_"ESB_GNY_32620_32695")_
x_("N127",_"HTY_ECN_32625_32690")_
x_("N125",_"ESB_ADA_32640_32700")_
x_("N123",_"SAW_ASR_32655_32740")_
x_("N126",_"SAW_ASR_32655_32740")_
x_("N128",_"SAW_ASR_32655_32740")_
x_("N125",_"ESB_SZF_32660_32720")_
x_("N123",_"SAW_KYA_32670_32740")_
x_("N126",_"SAW_KYA_32670_32740")_
x_("N128",_"SAW_KYA_32670_32740")_
x_("N124",_"ECN_ESB_32735_32805")_
x_("N125",_"ESB_MLX_32860_32935")_
x_("N125",_"ESB_ECN_32865_32935")_
x_("N125",_"ESB_HTY_32870_32950")_
x_("N125",_"ESB_YEI_32875_32935")_
x_("N123",_"SAW_ADB_33360_33420")_
x_("N126",_"SAW_ADB_33360_33420")_
x_("N128",_"SAW_ADB_33360_33420")_
x_("N124",_"ECN_ESB_33360_33430")_
x_("N122",_"YEI_ESB_33360_33420")_
x_("N121",_"MLX_ESB_33360_33435")_
x_("N127",_"HTY_ESB_33360_33435")_
x_("SAW_ADB_31920_31980",_"ADB_SAW_32015_32075")_
x_("SAW_ADB_31920_31980",_"ADB_SAW_32705_32765")_
x_("SAW_ADB_31920_31980",_"ADB_ESB_32605_32680")_
x_("ECN_ESB_31920_31990",_"ESB_TZX_32040_32120")_
x_("ECN_ESB_31920_31990",_"ESB_MLX_32860_32935")_
x_("ECN_ESB_31920_31990",_"ESB_ADA_32640_32700")_
x_("ECN_ESB_31920_31990",_"ESB_SZF_32660_32720")_
x_("ECN_ESB_31920_31990",_"ESB_ECN_32865_32935")_
x_("ECN_ESB_31920_31990",_"ESB_HTY_32870_32950")_
x_("ECN_ESB_31920_31990",_"ESB_BAL_32065_32155")_
x_("ECN_ESB_31920_31990",_"ESB_AJI_32050_32145")_
x_("ECN_ESB_31920_31990",_"ESB_SAW_32040_32100")_
x_("ECN_ESB_31920_31990",_"ESB_YEI_32875_32935")_
x_("ECN_ESB_31920_31990",_"ESB_SAW_32280_32340")_
x_("ECN_ESB_31920_31990",_"ESB_SAW_32400_32460")_
x_("ECN_ESB_31920_31990",_"ESB_ADB_32490_32570")_
x_("ECN_ESB_31920_31990",_"ESB_GNY_32620_32695")_
x_("ECN_ESB_31920_31990",_"ESB_MQM_32330_32425")_
x_("ECN_ESB_31920_31990",_"ESB_VAN_32125_32220")_
x_("ECN_ESB_31920_31990",_"ESB_ERC_32370_32450")_
x_("ECN_ESB_31920_31990",_"ESB_ECN_32340_32410")_
x_("YEI_ESB_31920_31980",_"ESB_TZX_32040_32120")_
x_("YEI_ESB_31920_31980",_"ESB_MLX_32860_32935")_
x_("YEI_ESB_31920_31980",_"ESB_ADA_32640_32700")_
x_("YEI_ESB_31920_31980",_"ESB_SZF_32660_32720")_
x_("YEI_ESB_31920_31980",_"ESB_ECN_32865_32935")_
x_("YEI_ESB_31920_31980",_"ESB_HTY_32870_32950")_
x_("YEI_ESB_31920_31980",_"ESB_BAL_32065_32155")_
x_("YEI_ESB_31920_31980",_"ESB_AJI_32050_32145")_
x_("YEI_ESB_31920_31980",_"ESB_SAW_32040_32100")_
x_("YEI_ESB_31920_31980",_"ESB_YEI_32875_32935")_
x_("YEI_ESB_31920_31980",_"ESB_SAW_32280_32340")_
x_("YEI_ESB_31920_31980",_"ESB_SAW_32400_32460")_
x_("YEI_ESB_31920_31980",_"ESB_ADB_32490_32570")_
x_("YEI_ESB_31920_31980",_"ESB_GNY_32620_32695")_
x_("YEI_ESB_31920_31980",_"ESB_MQM_32330_32425")_
x_("YEI_ESB_31920_31980",_"ESB_VAN_32125_32220")_
x_("YEI_ESB_31920_31980",_"ESB_ERC_32370_32450")_
x_("YEI_ESB_31920_31980",_"ESB_ECN_32340_32410")_
x_("MLX_ESB_31920_31995",_"ESB_TZX_32040_32120")_
x_("MLX_ESB_31920_31995",_"ESB_MLX_32860_32935")_
x_("MLX_ESB_31920_31995",_"ESB_ADA_32640_32700")_
x_("MLX_ESB_31920_31995",_"ESB_SZF_32660_32720")_
x_("MLX_ESB_31920_31995",_"ESB_ECN_32865_32935")_
x_("MLX_ESB_31920_31995",_"ESB_HTY_32870_32950")_
x_("MLX_ESB_31920_31995",_"ESB_BAL_32065_32155")_
x_("MLX_ESB_31920_31995",_"ESB_AJI_32050_32145")_
x_("MLX_ESB_31920_31995",_"ESB_SAW_32040_32100")_
x_("MLX_ESB_31920_31995",_"ESB_YEI_32875_32935")_
x_("MLX_ESB_31920_31995",_"ESB_SAW_32280_32340")_
x_("MLX_ESB_31920_31995",_"ESB_SAW_32400_32460")_
x_("MLX_ESB_31920_31995",_"ESB_ADB_32490_32570")_
x_("MLX_ESB_31920_31995",_"ESB_GNY_32620_32695")_
x_("MLX_ESB_31920_31995",_"ESB_MQM_32330_32425")_
x_("MLX_ESB_31920_31995",_"ESB_VAN_32125_32220")_
x_("MLX_ESB_31920_31995",_"ESB_ERC_32370_32450")_
x_("MLX_ESB_31920_31995",_"ESB_ECN_32340_32410")_
x_("HTY_ESB_31920_31995",_"ESB_TZX_32040_32120")_
x_("HTY_ESB_31920_31995",_"ESB_MLX_32860_32935")_
x_("HTY_ESB_31920_31995",_"ESB_ADA_32640_32700")_
x_("HTY_ESB_31920_31995",_"ESB_SZF_32660_32720")_
x_("HTY_ESB_31920_31995",_"ESB_ECN_32865_32935")_
x_("HTY_ESB_31920_31995",_"ESB_HTY_32870_32950")_
x_("HTY_ESB_31920_31995",_"ESB_BAL_32065_32155")_
x_("HTY_ESB_31920_31995",_"ESB_AJI_32050_32145")_
x_("HTY_ESB_31920_31995",_"ESB_SAW_32040_32100")_
x_("HTY_ESB_31920_31995",_"ESB_YEI_32875_32935")_
x_("HTY_ESB_31920_31995",_"ESB_SAW_32280_32340")_
x_("HTY_ESB_31920_31995",_"ESB_SAW_32400_32460")_
x_("HTY_ESB_31920_31995",_"ESB_ADB_32490_32570")_
x_("HTY_ESB_31920_31995",_"ESB_GNY_32620_32695")_
x_("HTY_ESB_31920_31995",_"ESB_MQM_32330_32425")_
x_("HTY_ESB_31920_31995",_"ESB_VAN_32125_32220")_
x_("HTY_ESB_31920_31995",_"ESB_ERC_32370_32450")_
x_("HTY_ESB_31920_31995",_"ESB_ECN_32340_32410")_
x_("SAW_ESB_31980_32040",_"ESB_MLX_32860_32935")_
x_("SAW_ESB_31980_32040",_"ESB_ADA_32640_32700")_
x_("SAW_ESB_31980_32040",_"ESB_SAW_33480_33540")_
x_("SAW_ESB_31980_32040",_"ESB_SZF_32660_32720")_
x_("SAW_ESB_31980_32040",_"ESB_ECN_32865_32935")_
x_("SAW_ESB_31980_32040",_"ESB_HTY_32870_32950")_
x_("SAW_ESB_31980_32040",_"ESB_YEI_32875_32935")_
x_("SAW_ESB_31980_32040",_"ESB_SAW_32280_32340")_
x_("SAW_ESB_31980_32040",_"ESB_SAW_32400_32460")_
x_("SAW_ESB_31980_32040",_"ESB_ADB_32490_32570")_
x_("SAW_ESB_31980_32040",_"ESB_GNY_32620_32695")_
x_("SAW_ESB_31980_32040",_"ESB_MQM_32330_32425")_
x_("SAW_ESB_31980_32040",_"ESB_VAN_32125_32220")_
x_("SAW_ESB_31980_32040",_"ESB_ERC_32370_32450")_
x_("SAW_ESB_31980_32040",_"ESB_TZX_33480_33560")_
x_("SAW_ESB_31980_32040",_"ESB_ECN_32340_32410")_
x_("ADB_SAW_32015_32075",_"SAW_ASR_32655_32740")_
x_("ADB_SAW_32015_32075",_"SAW_ESB_32520_32580")_
x_("ADB_SAW_32015_32075",_"SAW_ADB_33360_33420")_
x_("ADB_SAW_32015_32075",_"SAW_ESB_32160_32220")_
x_("ADB_SAW_32015_32075",_"SAW_VAS_32370_32450")_
x_("ADB_SAW_32015_32075",_"SAW_ESB_33420_33480")_
x_("ADB_SAW_32015_32075",_"SAW_KYA_32670_32740")_
x_("ADB_SAW_32015_32075",_"SAW_AYT_32385_32450")_
x_("ADB_SAW_32015_32075",_"SAW_TZX_32145_32245")_
x_("ADB_SAW_32015_32075",_"SAW_ADB_32610_32670")_
x_("ESB_SAW_32040_32100",_"SAW_ASR_32655_32740")_
x_("ESB_SAW_32040_32100",_"SAW_ESB_32520_32580")_
x_("ESB_SAW_32040_32100",_"SAW_ADB_33360_33420")_
x_("ESB_SAW_32040_32100",_"SAW_ESB_32160_32220")_
x_("ESB_SAW_32040_32100",_"SAW_VAS_32370_32450")_
x_("ESB_SAW_32040_32100",_"SAW_ESB_33420_33480")_
x_("ESB_SAW_32040_32100",_"SAW_KYA_32670_32740")_
x_("ESB_SAW_32040_32100",_"SAW_AYT_32385_32450")_
x_("ESB_SAW_32040_32100",_"SAW_TZX_32145_32245")_
x_("ESB_SAW_32040_32100",_"SAW_ADB_32610_32670")_
x_("ESB_TZX_32040_32120",_"TZX_SAW_32280_32385")_
x_("ESB_TZX_32040_32120",_"TZX_ESB_32155_32235")_
x_("ESB_AJI_32050_32145",_"AJI_ESB_32180_32285")_
x_("ESB_BAL_32065_32155",_"BAL_ESB_32190_32285")_
x_("ESB_VAN_32125_32220",_"VAN_ESB_32255_32360")_
x_("SAW_TZX_32145_32245",_"TZX_SAW_32280_32385")_
x_("SAW_TZX_32145_32245",_"TZX_ESB_33595_33675")_
x_("TZX_ESB_32155_32235",_"ESB_MLX_32860_32935")_
x_("TZX_ESB_32155_32235",_"ESB_ADA_32640_32700")_
x_("TZX_ESB_32155_32235",_"ESB_SAW_33480_33540")_
x_("TZX_ESB_32155_32235",_"ESB_SZF_32660_32720")_
x_("TZX_ESB_32155_32235",_"ESB_ECN_32865_32935")_
x_("TZX_ESB_32155_32235",_"ESB_HTY_32870_32950")_
x_("TZX_ESB_32155_32235",_"ESB_AJI_33490_33585")_
x_("TZX_ESB_32155_32235",_"ESB_YEI_32875_32935")_
x_("TZX_ESB_32155_32235",_"ESB_SAW_32280_32340")_
x_("TZX_ESB_32155_32235",_"ESB_SAW_32400_32460")_
x_("TZX_ESB_32155_32235",_"ESB_VAN_33565_33660")_
x_("TZX_ESB_32155_32235",_"ESB_ADB_32490_32570")_
x_("TZX_ESB_32155_32235",_"ESB_BAL_33505_33595")_
x_("TZX_ESB_32155_32235",_"ESB_GNY_32620_32695")_
x_("TZX_ESB_32155_32235",_"ESB_MQM_32330_32425")_
x_("TZX_ESB_32155_32235",_"ESB_ERC_32370_32450")_
x_("TZX_ESB_32155_32235",_"ESB_TZX_33480_33560")_
x_("TZX_ESB_32155_32235",_"ESB_ECN_32340_32410")_
x_("SAW_ESB_32160_32220",_"ESB_MLX_32860_32935")_
x_("SAW_ESB_32160_32220",_"ESB_ADA_32640_32700")_
x_("SAW_ESB_32160_32220",_"ESB_SAW_33480_33540")_
x_("SAW_ESB_32160_32220",_"ESB_SZF_32660_32720")_
x_("SAW_ESB_32160_32220",_"ESB_ECN_32865_32935")_
x_("SAW_ESB_32160_32220",_"ESB_HTY_32870_32950")_
x_("SAW_ESB_32160_32220",_"ESB_AJI_33490_33585")_
x_("SAW_ESB_32160_32220",_"ESB_YEI_32875_32935")_
x_("SAW_ESB_32160_32220",_"ESB_SAW_32280_32340")_
x_("SAW_ESB_32160_32220",_"ESB_SAW_32400_32460")_
x_("SAW_ESB_32160_32220",_"ESB_VAN_33565_33660")_
x_("SAW_ESB_32160_32220",_"ESB_ADB_32490_32570")_
x_("SAW_ESB_32160_32220",_"ESB_BAL_33505_33595")_
x_("SAW_ESB_32160_32220",_"ESB_GNY_32620_32695")_
x_("SAW_ESB_32160_32220",_"ESB_MQM_32330_32425")_
x_("SAW_ESB_32160_32220",_"ESB_ERC_32370_32450")_
x_("SAW_ESB_32160_32220",_"ESB_TZX_33480_33560")_
x_("SAW_ESB_32160_32220",_"ESB_ECN_32340_32410")_
x_("AJI_ESB_32180_32285",_"ESB_MLX_32860_32935")_
x_("AJI_ESB_32180_32285",_"ESB_ADA_32640_32700")_
x_("AJI_ESB_32180_32285",_"ESB_SAW_33480_33540")_
x_("AJI_ESB_32180_32285",_"ESB_SZF_32660_32720")_
x_("AJI_ESB_32180_32285",_"ESB_ECN_32865_32935")_
x_("AJI_ESB_32180_32285",_"ESB_HTY_32870_32950")_
x_("AJI_ESB_32180_32285",_"ESB_AJI_33490_33585")_
x_("AJI_ESB_32180_32285",_"ESB_YEI_32875_32935")_
x_("AJI_ESB_32180_32285",_"ESB_SAW_32400_32460")_
x_("AJI_ESB_32180_32285",_"ESB_VAN_33565_33660")_
x_("AJI_ESB_32180_32285",_"ESB_ADB_32490_32570")_
x_("AJI_ESB_32180_32285",_"ESB_BAL_33505_33595")_
x_("AJI_ESB_32180_32285",_"ESB_SAW_33720_33780")_
x_("AJI_ESB_32180_32285",_"ESB_GNY_32620_32695")_
x_("AJI_ESB_32180_32285",_"ESB_MQM_32330_32425")_
x_("AJI_ESB_32180_32285",_"ESB_ERC_32370_32450")_
x_("AJI_ESB_32180_32285",_"ESB_TZX_33480_33560")_
x_("AJI_ESB_32180_32285",_"ESB_ECN_32340_32410")_
x_("BAL_ESB_32190_32285",_"ESB_MLX_32860_32935")_
x_("BAL_ESB_32190_32285",_"ESB_ADA_32640_32700")_
x_("BAL_ESB_32190_32285",_"ESB_SAW_33480_33540")_
x_("BAL_ESB_32190_32285",_"ESB_SZF_32660_32720")_
x_("BAL_ESB_32190_32285",_"ESB_ECN_32865_32935")_
x_("BAL_ESB_32190_32285",_"ESB_HTY_32870_32950")_
x_("BAL_ESB_32190_32285",_"ESB_AJI_33490_33585")_
x_("BAL_ESB_32190_32285",_"ESB_YEI_32875_32935")_
x_("BAL_ESB_32190_32285",_"ESB_SAW_32400_32460")_
x_("BAL_ESB_32190_32285",_"ESB_VAN_33565_33660")_
x_("BAL_ESB_32190_32285",_"ESB_ADB_32490_32570")_
x_("BAL_ESB_32190_32285",_"ESB_BAL_33505_33595")_
x_("BAL_ESB_32190_32285",_"ESB_SAW_33720_33780")_
x_("BAL_ESB_32190_32285",_"ESB_GNY_32620_32695")_
x_("BAL_ESB_32190_32285",_"ESB_MQM_32330_32425")_
x_("BAL_ESB_32190_32285",_"ESB_ERC_32370_32450")_
x_("BAL_ESB_32190_32285",_"ESB_TZX_33480_33560")_
x_("BAL_ESB_32190_32285",_"ESB_ECN_32340_32410")_
x_("VAN_ESB_32255_32360",_"ESB_MLX_32860_32935")_
x_("VAN_ESB_32255_32360",_"ESB_ADA_32640_32700")_
x_("VAN_ESB_32255_32360",_"ESB_SAW_33480_33540")_
x_("VAN_ESB_32255_32360",_"ESB_SZF_32660_32720")_
x_("VAN_ESB_32255_32360",_"ESB_ECN_32865_32935")_
x_("VAN_ESB_32255_32360",_"ESB_HTY_32870_32950")_
x_("VAN_ESB_32255_32360",_"ESB_AJI_33490_33585")_
x_("VAN_ESB_32255_32360",_"ESB_YEI_32875_32935")_
x_("VAN_ESB_32255_32360",_"ESB_SAW_32400_32460")_
x_("VAN_ESB_32255_32360",_"ESB_VAN_33565_33660")_
x_("VAN_ESB_32255_32360",_"ESB_ADB_32490_32570")_
x_("VAN_ESB_32255_32360",_"ESB_BAL_33505_33595")_
x_("VAN_ESB_32255_32360",_"ESB_SAW_33720_33780")_
x_("VAN_ESB_32255_32360",_"ESB_GNY_32620_32695")_
x_("VAN_ESB_32255_32360",_"ESB_TZX_33480_33560")_
x_("VAN_ESB_32255_32360",_"ESB_MQM_33770_33865")_
x_("TZX_SAW_32280_32385",_"SAW_ASR_32655_32740")_
x_("TZX_SAW_32280_32385",_"SAW_TZX_33585_33685")_
x_("TZX_SAW_32280_32385",_"SAW_ESB_32520_32580")_
x_("TZX_SAW_32280_32385",_"SAW_VAS_33810_33890")_
x_("TZX_SAW_32280_32385",_"SAW_ESB_33600_33660")_
x_("TZX_SAW_32280_32385",_"SAW_AYT_33825_33890")_
x_("TZX_SAW_32280_32385",_"SAW_ADB_33360_33420")_
x_("TZX_SAW_32280_32385",_"SAW_ESB_33420_33480")_
x_("TZX_SAW_32280_32385",_"SAW_KYA_32670_32740")_
x_("TZX_SAW_32280_32385",_"SAW_ADB_32610_32670")_
x_("ESB_SAW_32280_32340",_"SAW_ASR_32655_32740")_
x_("ESB_SAW_32280_32340",_"SAW_TZX_33585_33685")_
x_("ESB_SAW_32280_32340",_"SAW_ESB_32520_32580")_
x_("ESB_SAW_32280_32340",_"SAW_ESB_33600_33660")_
x_("ESB_SAW_32280_32340",_"SAW_ADB_33360_33420")_
x_("ESB_SAW_32280_32340",_"SAW_ESB_33420_33480")_
x_("ESB_SAW_32280_32340",_"SAW_KYA_32670_32740")_
x_("ESB_SAW_32280_32340",_"SAW_AYT_32385_32450")_
x_("ESB_SAW_32280_32340",_"SAW_ADB_32610_32670")_
x_("ESB_MQM_32330_32425",_"MQM_ESB_32460_32555")_
x_("ESB_ECN_32340_32410",_"ECN_ESB_33360_33430")_
x_("ESB_ECN_32340_32410",_"ECN_HTY_32520_32585")_
x_("ESB_ECN_32340_32410",_"ECN_ESB_32735_32805")_
x_("ESB_ERC_32370_32450",_"ERC_ESB_32485_32565")_
x_("SAW_VAS_32370_32450",_"VAS_SAW_32485_32565")_
x_("SAW_AYT_32385_32450",_"AYT_SAW_32490_32555")_
x_("ESB_SAW_32400_32460",_"SAW_ASR_32655_32740")_
x_("ESB_SAW_32400_32460",_"SAW_TZX_33585_33685")_
x_("ESB_SAW_32400_32460",_"SAW_ESB_32520_32580")_
x_("ESB_SAW_32400_32460",_"SAW_VAS_33810_33890")_
x_("ESB_SAW_32400_32460",_"SAW_ESB_33600_33660")_
x_("ESB_SAW_32400_32460",_"SAW_AYT_33825_33890")_
x_("ESB_SAW_32400_32460",_"SAW_ADB_33360_33420")_
x_("ESB_SAW_32400_32460",_"SAW_ESB_33420_33480")_
x_("ESB_SAW_32400_32460",_"SAW_KYA_32670_32740")_
x_("ESB_SAW_32400_32460",_"SAW_ADB_32610_32670")_
x_("MQM_ESB_32460_32555",_"ESB_MLX_32860_32935")_
x_("MQM_ESB_32460_32555",_"ESB_ADA_32640_32700")_
x_("MQM_ESB_32460_32555",_"ESB_SAW_33480_33540")_
x_("MQM_ESB_32460_32555",_"ESB_SZF_32660_32720")_
x_("MQM_ESB_32460_32555",_"ESB_ECN_32865_32935")_
x_("MQM_ESB_32460_32555",_"ESB_HTY_32870_32950")_
x_("MQM_ESB_32460_32555",_"ESB_SAW_33840_33900")_
x_("MQM_ESB_32460_32555",_"ESB_ERC_33810_33890")_
x_("MQM_ESB_32460_32555",_"ESB_AJI_33490_33585")_
x_("MQM_ESB_32460_32555",_"ESB_YEI_32875_32935")_
x_("MQM_ESB_32460_32555",_"ESB_VAN_33565_33660")_
x_("MQM_ESB_32460_32555",_"ESB_ADB_33930_34010")_
x_("MQM_ESB_32460_32555",_"ESB_BAL_33505_33595")_
x_("MQM_ESB_32460_32555",_"ESB_SAW_33720_33780")_
x_("MQM_ESB_32460_32555",_"ESB_GNY_32620_32695")_
x_("MQM_ESB_32460_32555",_"ESB_TZX_33480_33560")_
x_("MQM_ESB_32460_32555",_"ESB_MQM_33770_33865")_
x_("ERC_ESB_32485_32565",_"ESB_MLX_32860_32935")_
x_("ERC_ESB_32485_32565",_"ESB_ADA_32640_32700")_
x_("ERC_ESB_32485_32565",_"ESB_SAW_33480_33540")_
x_("ERC_ESB_32485_32565",_"ESB_SZF_32660_32720")_
x_("ERC_ESB_32485_32565",_"ESB_ECN_32865_32935")_
x_("ERC_ESB_32485_32565",_"ESB_HTY_32870_32950")_
x_("ERC_ESB_32485_32565",_"ESB_SAW_33840_33900")_
x_("ERC_ESB_32485_32565",_"ESB_ERC_33810_33890")_
x_("ERC_ESB_32485_32565",_"ESB_AJI_33490_33585")_
x_("ERC_ESB_32485_32565",_"ESB_YEI_32875_32935")_
x_("ERC_ESB_32485_32565",_"ESB_VAN_33565_33660")_
x_("ERC_ESB_32485_32565",_"ESB_ADB_33930_34010")_
x_("ERC_ESB_32485_32565",_"ESB_BAL_33505_33595")_
x_("ERC_ESB_32485_32565",_"ESB_SAW_33720_33780")_
x_("ERC_ESB_32485_32565",_"ESB_GNY_32620_32695")_
x_("ERC_ESB_32485_32565",_"ESB_TZX_33480_33560")_
x_("ERC_ESB_32485_32565",_"ESB_MQM_33770_33865")_
x_("VAS_SAW_32485_32565",_"SAW_ESB_33960_34020")_
x_("VAS_SAW_32485_32565",_"SAW_ASR_32655_32740")_
x_("VAS_SAW_32485_32565",_"SAW_TZX_33585_33685")_
x_("VAS_SAW_32485_32565",_"SAW_VAS_33810_33890")_
x_("VAS_SAW_32485_32565",_"SAW_ESB_33600_33660")_
x_("VAS_SAW_32485_32565",_"SAW_AYT_33825_33890")_
x_("VAS_SAW_32485_32565",_"SAW_ADB_33360_33420")_
x_("VAS_SAW_32485_32565",_"SAW_ESB_33420_33480")_
x_("VAS_SAW_32485_32565",_"SAW_KYA_32670_32740")_
x_("VAS_SAW_32485_32565",_"SAW_ADB_32610_32670")_
x_("ESB_ADB_32490_32570",_"ADB_SAW_32705_32765")_
x_("ESB_ADB_32490_32570",_"ADB_SAW_33455_33515")_
x_("ESB_ADB_32490_32570",_"ADB_ESB_32605_32680")_
x_("AYT_SAW_32490_32555",_"SAW_ESB_33960_34020")_
x_("AYT_SAW_32490_32555",_"SAW_ASR_32655_32740")_
x_("AYT_SAW_32490_32555",_"SAW_TZX_33585_33685")_
x_("AYT_SAW_32490_32555",_"SAW_VAS_33810_33890")_
x_("AYT_SAW_32490_32555",_"SAW_ESB_33600_33660")_
x_("AYT_SAW_32490_32555",_"SAW_AYT_33825_33890")_
x_("AYT_SAW_32490_32555",_"SAW_ADB_33360_33420")_
x_("AYT_SAW_32490_32555",_"SAW_ESB_33420_33480")_
x_("AYT_SAW_32490_32555",_"SAW_KYA_32670_32740")_
x_("AYT_SAW_32490_32555",_"SAW_ADB_32610_32670")_
x_("SAW_ESB_32520_32580",_"ESB_MLX_32860_32935")_
x_("SAW_ESB_32520_32580",_"ESB_ADA_32640_32700")_
x_("SAW_ESB_32520_32580",_"ESB_SAW_33480_33540")_
x_("SAW_ESB_32520_32580",_"ESB_SZF_32660_32720")_
x_("SAW_ESB_32520_32580",_"ESB_ECN_32865_32935")_
x_("SAW_ESB_32520_32580",_"ESB_HTY_32870_32950")_
x_("SAW_ESB_32520_32580",_"ESB_SAW_33840_33900")_
x_("SAW_ESB_32520_32580",_"ESB_ERC_33810_33890")_
x_("SAW_ESB_32520_32580",_"ESB_AJI_33490_33585")_
x_("SAW_ESB_32520_32580",_"ESB_YEI_32875_32935")_
x_("SAW_ESB_32520_32580",_"ESB_VAN_33565_33660")_
x_("SAW_ESB_32520_32580",_"ESB_ADB_33930_34010")_
x_("SAW_ESB_32520_32580",_"ESB_BAL_33505_33595")_
x_("SAW_ESB_32520_32580",_"ESB_SAW_33720_33780")_
x_("SAW_ESB_32520_32580",_"ESB_GNY_32620_32695")_
x_("SAW_ESB_32520_32580",_"ESB_TZX_33480_33560")_
x_("SAW_ESB_32520_32580",_"ESB_MQM_33770_33865")_
x_("ECN_HTY_32520_32585",_"HTY_ECN_32625_32690")_
x_("ECN_HTY_32520_32585",_"HTY_ESB_33360_33435")_
x_("ADB_ESB_32605_32680",_"ESB_MLX_32860_32935")_
x_("ADB_ESB_32605_32680",_"ESB_SAW_33480_33540")_
x_("ADB_ESB_32605_32680",_"ESB_ECN_32865_32935")_
x_("ADB_ESB_32605_32680",_"ESB_HTY_32870_32950")_
x_("ADB_ESB_32605_32680",_"ESB_SAW_33840_33900")_
x_("ADB_ESB_32605_32680",_"ESB_SZF_34100_34160")_
x_("ADB_ESB_32605_32680",_"ESB_ERC_33810_33890")_
x_("ADB_ESB_32605_32680",_"ESB_AJI_33490_33585")_
x_("ADB_ESB_32605_32680",_"ESB_YEI_32875_32935")_
x_("ADB_ESB_32605_32680",_"ESB_ADA_34080_34140")_
x_("ADB_ESB_32605_32680",_"ESB_VAN_33565_33660")_
x_("ADB_ESB_32605_32680",_"ESB_ADB_33930_34010")_
x_("ADB_ESB_32605_32680",_"ESB_BAL_33505_33595")_
x_("ADB_ESB_32605_32680",_"ESB_SAW_33720_33780")_
x_("ADB_ESB_32605_32680",_"ESB_GNY_34060_34135")_
x_("ADB_ESB_32605_32680",_"ESB_TZX_33480_33560")_
x_("ADB_ESB_32605_32680",_"ESB_MQM_33770_33865")_
x_("SAW_ADB_32610_32670",_"ADB_SAW_32705_32765")_
x_("SAW_ADB_32610_32670",_"ADB_SAW_33455_33515")_
x_("SAW_ADB_32610_32670",_"ADB_ESB_34045_34120")_
x_("ESB_GNY_32620_32695",_"GNY_ESB_32730_32810")_
x_("HTY_ECN_32625_32690",_"ECN_ESB_33360_33430")_
x_("HTY_ECN_32625_32690",_"ECN_ESB_32735_32805")_
x_("ESB_ADA_32640_32700",_"ADA_ESB_32740_32805")_
x_("SAW_ASR_32655_32740",_"ASR_SAW_32775_32865")_
x_("ESB_SZF_32660_32720",_"SZF_ESB_32755_32815")_
x_("SAW_KYA_32670_32740",_"KYA_SAW_32775_32845")_
x_("ADB_SAW_32705_32765",_"SAW_ADB_34050_34110")_
x_("ADB_SAW_32705_32765",_"SAW_ESB_33960_34020")_
x_("ADB_SAW_32705_32765",_"SAW_TZX_33585_33685")_
x_("ADB_SAW_32705_32765",_"SAW_VAS_33810_33890")_
x_("ADB_SAW_32705_32765",_"SAW_ESB_33600_33660")_
x_("ADB_SAW_32705_32765",_"SAW_AYT_33825_33890")_
x_("ADB_SAW_32705_32765",_"SAW_ADB_33360_33420")_
x_("ADB_SAW_32705_32765",_"SAW_ESB_33420_33480")_
x_("ADB_SAW_32705_32765",_"SAW_ASR_34095_34180")_
x_("GNY_ESB_32730_32810",_"ESB_MLX_32860_32935")_
x_("GNY_ESB_32730_32810",_"ESB_SAW_33480_33540")_
x_("GNY_ESB_32730_32810",_"ESB_ECN_32865_32935")_
x_("GNY_ESB_32730_32810",_"ESB_HTY_32870_32950")_
x_("GNY_ESB_32730_32810",_"ESB_SAW_33840_33900")_
x_("GNY_ESB_32730_32810",_"ESB_SZF_34100_34160")_
x_("GNY_ESB_32730_32810",_"ESB_ERC_33810_33890")_
x_("GNY_ESB_32730_32810",_"ESB_AJI_33490_33585")_
x_("GNY_ESB_32730_32810",_"ESB_YEI_32875_32935")_
x_("GNY_ESB_32730_32810",_"ESB_ADA_34080_34140")_
x_("GNY_ESB_32730_32810",_"ESB_VAN_33565_33660")_
x_("GNY_ESB_32730_32810",_"ESB_ADB_33930_34010")_
x_("GNY_ESB_32730_32810",_"ESB_BAL_33505_33595")_
x_("GNY_ESB_32730_32810",_"ESB_SAW_33720_33780")_
x_("GNY_ESB_32730_32810",_"ESB_GNY_34060_34135")_
x_("GNY_ESB_32730_32810",_"ESB_TZX_33480_33560")_
x_("GNY_ESB_32730_32810",_"ESB_MQM_33770_33865")_
x_("ECN_ESB_32735_32805",_"ESB_MLX_32860_32935")_
x_("ECN_ESB_32735_32805",_"ESB_SAW_33480_33540")_
x_("ECN_ESB_32735_32805",_"ESB_ECN_32865_32935")_
x_("ECN_ESB_32735_32805",_"ESB_HTY_32870_32950")_
x_("ECN_ESB_32735_32805",_"ESB_SAW_33840_33900")_
x_("ECN_ESB_32735_32805",_"ESB_SZF_34100_34160")_
x_("ECN_ESB_32735_32805",_"ESB_ERC_33810_33890")_
x_("ECN_ESB_32735_32805",_"ESB_AJI_33490_33585")_
x_("ECN_ESB_32735_32805",_"ESB_YEI_32875_32935")_
x_("ECN_ESB_32735_32805",_"ESB_ADA_34080_34140")_
x_("ECN_ESB_32735_32805",_"ESB_VAN_33565_33660")_
x_("ECN_ESB_32735_32805",_"ESB_ADB_33930_34010")_
x_("ECN_ESB_32735_32805",_"ESB_BAL_33505_33595")_
x_("ECN_ESB_32735_32805",_"ESB_SAW_33720_33780")_
x_("ECN_ESB_32735_32805",_"ESB_GNY_34060_34135")_
x_("ECN_ESB_32735_32805",_"ESB_TZX_33480_33560")_
x_("ECN_ESB_32735_32805",_"ESB_MQM_33770_33865")_
x_("ADA_ESB_32740_32805",_"ESB_MLX_32860_32935")_
x_("ADA_ESB_32740_32805",_"ESB_SAW_33480_33540")_
x_("ADA_ESB_32740_32805",_"ESB_ECN_32865_32935")_
x_("ADA_ESB_32740_32805",_"ESB_HTY_32870_32950")_
x_("ADA_ESB_32740_32805",_"ESB_SAW_33840_33900")_
x_("ADA_ESB_32740_32805",_"ESB_SZF_34100_34160")_
x_("ADA_ESB_32740_32805",_"ESB_ERC_33810_33890")_
x_("ADA_ESB_32740_32805",_"ESB_AJI_33490_33585")_
x_("ADA_ESB_32740_32805",_"ESB_YEI_32875_32935")_
x_("ADA_ESB_32740_32805",_"ESB_ADA_34080_34140")_
x_("ADA_ESB_32740_32805",_"ESB_VAN_33565_33660")_
x_("ADA_ESB_32740_32805",_"ESB_ADB_33930_34010")_
x_("ADA_ESB_32740_32805",_"ESB_BAL_33505_33595")_
x_("ADA_ESB_32740_32805",_"ESB_SAW_33720_33780")_
x_("ADA_ESB_32740_32805",_"ESB_GNY_34060_34135")_
x_("ADA_ESB_32740_32805",_"ESB_TZX_33480_33560")_
x_("ADA_ESB_32740_32805",_"ESB_MQM_33770_33865")_
x_("SZF_ESB_32755_32815",_"ESB_MLX_32860_32935")_
x_("SZF_ESB_32755_32815",_"ESB_SAW_33480_33540")_
x_("SZF_ESB_32755_32815",_"ESB_ECN_32865_32935")_
x_("SZF_ESB_32755_32815",_"ESB_HTY_32870_32950")_
x_("SZF_ESB_32755_32815",_"ESB_SAW_33840_33900")_
x_("SZF_ESB_32755_32815",_"ESB_SZF_34100_34160")_
x_("SZF_ESB_32755_32815",_"ESB_ERC_33810_33890")_
x_("SZF_ESB_32755_32815",_"ESB_AJI_33490_33585")_
x_("SZF_ESB_32755_32815",_"ESB_YEI_32875_32935")_
x_("SZF_ESB_32755_32815",_"ESB_ADA_34080_34140")_
x_("SZF_ESB_32755_32815",_"ESB_VAN_33565_33660")_
x_("SZF_ESB_32755_32815",_"ESB_ADB_33930_34010")_
x_("SZF_ESB_32755_32815",_"ESB_BAL_33505_33595")_
x_("SZF_ESB_32755_32815",_"ESB_SAW_33720_33780")_
x_("SZF_ESB_32755_32815",_"ESB_GNY_34060_34135")_
x_("SZF_ESB_32755_32815",_"ESB_TZX_33480_33560")_
x_("SZF_ESB_32755_32815",_"ESB_MQM_33770_33865")_
x_("KYA_SAW_32775_32845",_"SAW_ADB_34050_34110")_
x_("KYA_SAW_32775_32845",_"SAW_ESB_33960_34020")_
x_("KYA_SAW_32775_32845",_"SAW_TZX_33585_33685")_
x_("KYA_SAW_32775_32845",_"SAW_VAS_33810_33890")_
x_("KYA_SAW_32775_32845",_"SAW_ESB_33600_33660")_
x_("KYA_SAW_32775_32845",_"SAW_AYT_33825_33890")_
x_("KYA_SAW_32775_32845",_"SAW_ADB_33360_33420")_
x_("KYA_SAW_32775_32845",_"SAW_ESB_33420_33480")_
x_("KYA_SAW_32775_32845",_"SAW_ASR_34095_34180")_
x_("ASR_SAW_32775_32865",_"SAW_ADB_34050_34110")_
x_("ASR_SAW_32775_32865",_"SAW_ESB_33960_34020")_
x_("ASR_SAW_32775_32865",_"SAW_TZX_33585_33685")_
x_("ASR_SAW_32775_32865",_"SAW_VAS_33810_33890")_
x_("ASR_SAW_32775_32865",_"SAW_ESB_33600_33660")_
x_("ASR_SAW_32775_32865",_"SAW_AYT_33825_33890")_
x_("ASR_SAW_32775_32865",_"SAW_ADB_33360_33420")_
x_("ASR_SAW_32775_32865",_"SAW_ESB_33420_33480")_
x_("ASR_SAW_32775_32865",_"SAW_ASR_34095_34180")_
x_("ESB_MLX_32860_32935",_"MLX_ESB_33360_33435")_
x_("ESB_ECN_32865_32935",_"ECN_ESB_33360_33430")_
x_("ESB_HTY_32870_32950",_"HTY_ESB_33360_33435")_
x_("ESB_YEI_32875_32935",_"YEI_ESB_33360_33420")_
x_("SAW_ADB_33360_33420",_"ADB_SAW_33455_33515")_
x_("SAW_ADB_33360_33420",_"ADB_SAW_34145_34205")_
x_("SAW_ADB_33360_33420",_"ADB_ESB_34045_34120")_
x_("ECN_ESB_33360_33430",_"ESB_ECN_34305_34375")_
x_("ECN_ESB_33360_33430",_"ESB_SAW_33480_33540")_
x_("ECN_ESB_33360_33430",_"ESB_SAW_33840_33900")_
x_("ECN_ESB_33360_33430",_"ESB_SZF_34100_34160")_
x_("ECN_ESB_33360_33430",_"ESB_ERC_33810_33890")_
x_("ECN_ESB_33360_33430",_"ESB_AJI_33490_33585")_
x_("ECN_ESB_33360_33430",_"ESB_HTY_34310_34390")_
x_("ECN_ESB_33360_33430",_"ESB_MLX_34300_34375")_
x_("ECN_ESB_33360_33430",_"ESB_ADA_34080_34140")_
x_("ECN_ESB_33360_33430",_"ESB_VAN_33565_33660")_
x_("ECN_ESB_33360_33430",_"ESB_ADB_33930_34010")_
x_("ECN_ESB_33360_33430",_"ESB_BAL_33505_33595")_
x_("ECN_ESB_33360_33430",_"ESB_SAW_33720_33780")_
x_("ECN_ESB_33360_33430",_"ESB_YEI_34315_34375")_
x_("ECN_ESB_33360_33430",_"ESB_GNY_34060_34135")_
x_("ECN_ESB_33360_33430",_"ESB_TZX_33480_33560")_
x_("ECN_ESB_33360_33430",_"ESB_MQM_33770_33865")_
x_("YEI_ESB_33360_33420",_"ESB_ECN_34305_34375")_
x_("YEI_ESB_33360_33420",_"ESB_SAW_33480_33540")_
x_("YEI_ESB_33360_33420",_"ESB_SAW_33840_33900")_
x_("YEI_ESB_33360_33420",_"ESB_SZF_34100_34160")_
x_("YEI_ESB_33360_33420",_"ESB_ERC_33810_33890")_
x_("YEI_ESB_33360_33420",_"ESB_AJI_33490_33585")_
x_("YEI_ESB_33360_33420",_"ESB_HTY_34310_34390")_
x_("YEI_ESB_33360_33420",_"ESB_MLX_34300_34375")_
x_("YEI_ESB_33360_33420",_"ESB_ADA_34080_34140")_
x_("YEI_ESB_33360_33420",_"ESB_VAN_33565_33660")_
x_("YEI_ESB_33360_33420",_"ESB_ADB_33930_34010")_
x_("YEI_ESB_33360_33420",_"ESB_BAL_33505_33595")_
x_("YEI_ESB_33360_33420",_"ESB_SAW_33720_33780")_
x_("YEI_ESB_33360_33420",_"ESB_YEI_34315_34375")_
x_("YEI_ESB_33360_33420",_"ESB_GNY_34060_34135")_
x_("YEI_ESB_33360_33420",_"ESB_TZX_33480_33560")_
x_("YEI_ESB_33360_33420",_"ESB_MQM_33770_33865")_
x_("MLX_ESB_33360_33435",_"ESB_ECN_34305_34375")_
x_("MLX_ESB_33360_33435",_"ESB_SAW_33480_33540")_
x_("MLX_ESB_33360_33435",_"ESB_SAW_33840_33900")_
x_("MLX_ESB_33360_33435",_"ESB_SZF_34100_34160")_
x_("MLX_ESB_33360_33435",_"ESB_ERC_33810_33890")_
x_("MLX_ESB_33360_33435",_"ESB_AJI_33490_33585")_
x_("MLX_ESB_33360_33435",_"ESB_HTY_34310_34390")_
x_("MLX_ESB_33360_33435",_"ESB_MLX_34300_34375")_
x_("MLX_ESB_33360_33435",_"ESB_ADA_34080_34140")_
x_("MLX_ESB_33360_33435",_"ESB_VAN_33565_33660")_
x_("MLX_ESB_33360_33435",_"ESB_ADB_33930_34010")_
x_("MLX_ESB_33360_33435",_"ESB_BAL_33505_33595")_
x_("MLX_ESB_33360_33435",_"ESB_SAW_33720_33780")_
x_("MLX_ESB_33360_33435",_"ESB_YEI_34315_34375")_
x_("MLX_ESB_33360_33435",_"ESB_GNY_34060_34135")_
x_("MLX_ESB_33360_33435",_"ESB_TZX_33480_33560")_
x_("MLX_ESB_33360_33435",_"ESB_MQM_33770_33865")_
x_("HTY_ESB_33360_33435",_"ESB_ECN_34305_34375")_
x_("HTY_ESB_33360_33435",_"ESB_SAW_33480_33540")_
x_("HTY_ESB_33360_33435",_"ESB_SAW_33840_33900")_
x_("HTY_ESB_33360_33435",_"ESB_SZF_34100_34160")_
x_("HTY_ESB_33360_33435",_"ESB_ERC_33810_33890")_
x_("HTY_ESB_33360_33435",_"ESB_AJI_33490_33585")_
x_("HTY_ESB_33360_33435",_"ESB_HTY_34310_34390")_
x_("HTY_ESB_33360_33435",_"ESB_MLX_34300_34375")_
x_("HTY_ESB_33360_33435",_"ESB_ADA_34080_34140")_
x_("HTY_ESB_33360_33435",_"ESB_VAN_33565_33660")_
x_("HTY_ESB_33360_33435",_"ESB_ADB_33930_34010")_
x_("HTY_ESB_33360_33435",_"ESB_BAL_33505_33595")_
x_("HTY_ESB_33360_33435",_"ESB_SAW_33720_33780")_
x_("HTY_ESB_33360_33435",_"ESB_YEI_34315_34375")_
x_("HTY_ESB_33360_33435",_"ESB_GNY_34060_34135")_
x_("HTY_ESB_33360_33435",_"ESB_TZX_33480_33560")_
x_("HTY_ESB_33360_33435",_"ESB_MQM_33770_33865")_
x_("SAW_ESB_33420_33480",_"ESB_ECN_34305_34375")_
x_("SAW_ESB_33420_33480",_"ESB_SAW_33840_33900")_
x_("SAW_ESB_33420_33480",_"ESB_SAW_34920_34980")_
x_("SAW_ESB_33420_33480",_"ESB_SZF_34100_34160")_
x_("SAW_ESB_33420_33480",_"ESB_ERC_33810_33890")_
x_("SAW_ESB_33420_33480",_"ESB_HTY_34310_34390")_
x_("SAW_ESB_33420_33480",_"ESB_MLX_34300_34375")_
x_("SAW_ESB_33420_33480",_"ESB_ADA_34080_34140")_
x_("SAW_ESB_33420_33480",_"ESB_TZX_34920_35000")_
x_("SAW_ESB_33420_33480",_"ESB_VAN_33565_33660")_
x_("SAW_ESB_33420_33480",_"ESB_ADB_33930_34010")_
x_("SAW_ESB_33420_33480",_"ESB_SAW_33720_33780")_
x_("SAW_ESB_33420_33480",_"ESB_YEI_34315_34375")_
x_("SAW_ESB_33420_33480",_"ESB_GNY_34060_34135")_
x_("SAW_ESB_33420_33480",_"ESB_MQM_33770_33865")_
x_("ADB_SAW_33455_33515",_"SAW_ADB_34050_34110")_
x_("ADB_SAW_33455_33515",_"SAW_ESB_33960_34020")_
x_("ADB_SAW_33455_33515",_"SAW_TZX_33585_33685")_
x_("ADB_SAW_33455_33515",_"SAW_ADB_34800_34860")_
x_("ADB_SAW_33455_33515",_"SAW_VAS_33810_33890")_
x_("ADB_SAW_33455_33515",_"SAW_ESB_33600_33660")_
x_("ADB_SAW_33455_33515",_"SAW_AYT_33825_33890")_
x_("ADB_SAW_33455_33515",_"SAW_ESB_34860_34920")_
x_("ADB_SAW_33455_33515",_"SAW_ASR_34095_34180")_
x_("ESB_SAW_33480_33540",_"SAW_ADB_34050_34110")_
x_("ESB_SAW_33480_33540",_"SAW_ESB_33960_34020")_
x_("ESB_SAW_33480_33540",_"SAW_TZX_33585_33685")_
x_("ESB_SAW_33480_33540",_"SAW_ADB_34800_34860")_
x_("ESB_SAW_33480_33540",_"SAW_VAS_33810_33890")_
x_("ESB_SAW_33480_33540",_"SAW_ESB_33600_33660")_
x_("ESB_SAW_33480_33540",_"SAW_AYT_33825_33890")_
x_("ESB_SAW_33480_33540",_"SAW_ESB_34860_34920")_
x_("ESB_SAW_33480_33540",_"SAW_ASR_34095_34180")_
x_("ESB_TZX_33480_33560",_"TZX_ESB_33595_33675")_
x_("ESB_TZX_33480_33560",_"TZX_SAW_33720_33825")_
x_("ESB_AJI_33490_33585",_"AJI_ESB_33620_33725")_
x_("ESB_BAL_33505_33595",_"BAL_ESB_33630_33725")_
x_("ESB_VAN_33565_33660",_"VAN_ESB_33695_33800")_
x_("SAW_TZX_33585_33685",_"TZX_ESB_35035_35115")_
x_("SAW_TZX_33585_33685",_"TZX_SAW_33720_33825")_
x_("TZX_ESB_33595_33675",_"ESB_ECN_34305_34375")_
x_("TZX_ESB_33595_33675",_"ESB_BAL_34945_35035")_
x_("TZX_ESB_33595_33675",_"ESB_SAW_33840_33900")_
x_("TZX_ESB_33595_33675",_"ESB_SAW_34920_34980")_
x_("TZX_ESB_33595_33675",_"ESB_SZF_34100_34160")_
x_("TZX_ESB_33595_33675",_"ESB_ERC_33810_33890")_
x_("TZX_ESB_33595_33675",_"ESB_HTY_34310_34390")_
x_("TZX_ESB_33595_33675",_"ESB_MLX_34300_34375")_
x_("TZX_ESB_33595_33675",_"ESB_AYT_35100_35165")_
x_("TZX_ESB_33595_33675",_"ESB_ADA_34080_34140")_
x_("TZX_ESB_33595_33675",_"ESB_TZX_34920_35000")_
x_("TZX_ESB_33595_33675",_"ESB_AJI_34930_35025")_
x_("TZX_ESB_33595_33675",_"ESB_VAN_35005_35100")_
x_("TZX_ESB_33595_33675",_"ESB_ADB_33930_34010")_
x_("TZX_ESB_33595_33675",_"ESB_SAW_33720_33780")_
x_("TZX_ESB_33595_33675",_"ESB_YEI_34315_34375")_
x_("TZX_ESB_33595_33675",_"ESB_GNY_34060_34135")_
x_("TZX_ESB_33595_33675",_"ESB_MQM_33770_33865")_
x_("SAW_ESB_33600_33660",_"ESB_ECN_34305_34375")_
x_("SAW_ESB_33600_33660",_"ESB_BAL_34945_35035")_
x_("SAW_ESB_33600_33660",_"ESB_SAW_33840_33900")_
x_("SAW_ESB_33600_33660",_"ESB_SAW_34920_34980")_
x_("SAW_ESB_33600_33660",_"ESB_SZF_34100_34160")_
x_("SAW_ESB_33600_33660",_"ESB_ERC_33810_33890")_
x_("SAW_ESB_33600_33660",_"ESB_HTY_34310_34390")_
x_("SAW_ESB_33600_33660",_"ESB_MLX_34300_34375")_
x_("SAW_ESB_33600_33660",_"ESB_AYT_35100_35165")_
x_("SAW_ESB_33600_33660",_"ESB_ADA_34080_34140")_
x_("SAW_ESB_33600_33660",_"ESB_TZX_34920_35000")_
x_("SAW_ESB_33600_33660",_"ESB_AJI_34930_35025")_
x_("SAW_ESB_33600_33660",_"ESB_VAN_35005_35100")_
x_("SAW_ESB_33600_33660",_"ESB_ADB_33930_34010")_
x_("SAW_ESB_33600_33660",_"ESB_SAW_33720_33780")_
x_("SAW_ESB_33600_33660",_"ESB_YEI_34315_34375")_
x_("SAW_ESB_33600_33660",_"ESB_GNY_34060_34135")_
x_("SAW_ESB_33600_33660",_"ESB_MQM_33770_33865")_
x_("AJI_ESB_33620_33725",_"ESB_ECN_34305_34375")_
x_("AJI_ESB_33620_33725",_"ESB_BAL_34945_35035")_
x_("AJI_ESB_33620_33725",_"ESB_SAW_33840_33900")_
x_("AJI_ESB_33620_33725",_"ESB_SAW_34920_34980")_
x_("AJI_ESB_33620_33725",_"ESB_SZF_34100_34160")_
x_("AJI_ESB_33620_33725",_"ESB_ERC_33810_33890")_
x_("AJI_ESB_33620_33725",_"ESB_HTY_34310_34390")_
x_("AJI_ESB_33620_33725",_"ESB_MLX_34300_34375")_
x_("AJI_ESB_33620_33725",_"ESB_AYT_35100_35165")_
x_("AJI_ESB_33620_33725",_"ESB_ADA_34080_34140")_
x_("AJI_ESB_33620_33725",_"ESB_TZX_34920_35000")_
x_("AJI_ESB_33620_33725",_"ESB_AJI_34930_35025")_
x_("AJI_ESB_33620_33725",_"ESB_VAN_35005_35100")_
x_("AJI_ESB_33620_33725",_"ESB_ADB_33930_34010")_
x_("AJI_ESB_33620_33725",_"ESB_YEI_34315_34375")_
x_("AJI_ESB_33620_33725",_"ESB_GNY_34060_34135")_
x_("AJI_ESB_33620_33725",_"ESB_SAW_35160_35220")_
x_("AJI_ESB_33620_33725",_"ESB_MQM_33770_33865")_
x_("BAL_ESB_33630_33725",_"ESB_ECN_34305_34375")_
x_("BAL_ESB_33630_33725",_"ESB_BAL_34945_35035")_
x_("BAL_ESB_33630_33725",_"ESB_SAW_33840_33900")_
x_("BAL_ESB_33630_33725",_"ESB_SAW_34920_34980")_
x_("BAL_ESB_33630_33725",_"ESB_SZF_34100_34160")_
x_("BAL_ESB_33630_33725",_"ESB_ERC_33810_33890")_
x_("BAL_ESB_33630_33725",_"ESB_HTY_34310_34390")_
x_("BAL_ESB_33630_33725",_"ESB_MLX_34300_34375")_
x_("BAL_ESB_33630_33725",_"ESB_AYT_35100_35165")_
x_("BAL_ESB_33630_33725",_"ESB_ADA_34080_34140")_
x_("BAL_ESB_33630_33725",_"ESB_TZX_34920_35000")_
x_("BAL_ESB_33630_33725",_"ESB_AJI_34930_35025")_
x_("BAL_ESB_33630_33725",_"ESB_VAN_35005_35100")_
x_("BAL_ESB_33630_33725",_"ESB_ADB_33930_34010")_
x_("BAL_ESB_33630_33725",_"ESB_YEI_34315_34375")_
x_("BAL_ESB_33630_33725",_"ESB_GNY_34060_34135")_
x_("BAL_ESB_33630_33725",_"ESB_SAW_35160_35220")_
x_("BAL_ESB_33630_33725",_"ESB_MQM_33770_33865")_
x_("VAN_ESB_33695_33800",_"ESB_ECN_34305_34375")_
x_("VAN_ESB_33695_33800",_"ESB_BAL_34945_35035")_
x_("VAN_ESB_33695_33800",_"ESB_SAW_33840_33900")_
x_("VAN_ESB_33695_33800",_"ESB_SAW_34920_34980")_
x_("VAN_ESB_33695_33800",_"ESB_SZF_34100_34160")_
x_("VAN_ESB_33695_33800",_"ESB_HTY_34310_34390")_
x_("VAN_ESB_33695_33800",_"ESB_MLX_34300_34375")_
x_("VAN_ESB_33695_33800",_"ESB_AYT_35100_35165")_
x_("VAN_ESB_33695_33800",_"ESB_ADA_34080_34140")_
x_("VAN_ESB_33695_33800",_"ESB_TZX_34920_35000")_
x_("VAN_ESB_33695_33800",_"ESB_MQM_35210_35305")_
x_("VAN_ESB_33695_33800",_"ESB_AJI_34930_35025")_
x_("VAN_ESB_33695_33800",_"ESB_VAN_35005_35100")_
x_("VAN_ESB_33695_33800",_"ESB_ADB_33930_34010")_
x_("VAN_ESB_33695_33800",_"ESB_ECN_35220_35290")_
x_("VAN_ESB_33695_33800",_"ESB_YEI_34315_34375")_
x_("VAN_ESB_33695_33800",_"ESB_GNY_34060_34135")_
x_("VAN_ESB_33695_33800",_"ESB_SAW_35160_35220")_
x_("TZX_SAW_33720_33825",_"SAW_ADB_34050_34110")_
x_("TZX_SAW_33720_33825",_"SAW_ESB_33960_34020")_
x_("TZX_SAW_33720_33825",_"SAW_NAJ_35030_35170")_
x_("TZX_SAW_33720_33825",_"SAW_ESB_35040_35100")_
x_("TZX_SAW_33720_33825",_"SAW_ADB_34800_34860")_
x_("TZX_SAW_33720_33825",_"SAW_TZX_35025_35125")_
x_("TZX_SAW_33720_33825",_"SAW_AYT_35265_35330")_
x_("TZX_SAW_33720_33825",_"SAW_ESB_34860_34920")_
x_("TZX_SAW_33720_33825",_"SAW_ASR_34095_34180")_
x_("ESB_SAW_33720_33780",_"SAW_ADB_34050_34110")_
x_("ESB_SAW_33720_33780",_"SAW_ESB_33960_34020")_
x_("ESB_SAW_33720_33780",_"SAW_NAJ_35030_35170")_
x_("ESB_SAW_33720_33780",_"SAW_ESB_35040_35100")_
x_("ESB_SAW_33720_33780",_"SAW_ADB_34800_34860")_
x_("ESB_SAW_33720_33780",_"SAW_TZX_35025_35125")_
x_("ESB_SAW_33720_33780",_"SAW_AYT_33825_33890")_
x_("ESB_SAW_33720_33780",_"SAW_ESB_34860_34920")_
x_("ESB_SAW_33720_33780",_"SAW_ASR_34095_34180")_
x_("ESB_MQM_33770_33865",_"MQM_ESB_33900_33995")_
x_("ESB_ERC_33810_33890",_"ERC_ESB_33925_34005")_
x_("SAW_VAS_33810_33890",_"VAS_SAW_33925_34005")_
x_("SAW_AYT_33825_33890",_"AYT_ESB_35200_35265")_
x_("SAW_AYT_33825_33890",_"AYT_SAW_33930_33995")_
x_("ESB_SAW_33840_33900",_"SAW_ADB_34050_34110")_
x_("ESB_SAW_33840_33900",_"SAW_ESB_33960_34020")_
x_("ESB_SAW_33840_33900",_"SAW_NAJ_35030_35170")_
x_("ESB_SAW_33840_33900",_"SAW_ESB_35040_35100")_
x_("ESB_SAW_33840_33900",_"SAW_ADB_34800_34860")_
x_("ESB_SAW_33840_33900",_"SAW_TZX_35025_35125")_
x_("ESB_SAW_33840_33900",_"SAW_AYT_35265_35330")_
x_("ESB_SAW_33840_33900",_"SAW_ESB_34860_34920")_
x_("ESB_SAW_33840_33900",_"SAW_ASR_34095_34180")_
x_("MQM_ESB_33900_33995",_"ESB_ECN_34305_34375")_
x_("MQM_ESB_33900_33995",_"ESB_BAL_34945_35035")_
x_("MQM_ESB_33900_33995",_"ESB_SAW_34920_34980")_
x_("MQM_ESB_33900_33995",_"ESB_SZF_34100_34160")_
x_("MQM_ESB_33900_33995",_"ESB_SAW_35280_35340")_
x_("MQM_ESB_33900_33995",_"ESB_HTY_34310_34390")_
x_("MQM_ESB_33900_33995",_"ESB_MLX_34300_34375")_
x_("MQM_ESB_33900_33995",_"ESB_ADB_35370_35450")_
x_("MQM_ESB_33900_33995",_"ESB_AYT_35100_35165")_
x_("MQM_ESB_33900_33995",_"ESB_ADA_34080_34140")_
x_("MQM_ESB_33900_33995",_"ESB_TZX_34920_35000")_
x_("MQM_ESB_33900_33995",_"ESB_MQM_35210_35305")_
x_("MQM_ESB_33900_33995",_"ESB_AJI_34930_35025")_
x_("MQM_ESB_33900_33995",_"ESB_VAN_35005_35100")_
x_("MQM_ESB_33900_33995",_"ESB_ECN_35220_35290")_
x_("MQM_ESB_33900_33995",_"ESB_YEI_34315_34375")_
x_("MQM_ESB_33900_33995",_"ESB_ERC_35250_35330")_
x_("MQM_ESB_33900_33995",_"ESB_GNY_34060_34135")_
x_("MQM_ESB_33900_33995",_"ESB_SAW_35160_35220")_
x_("ERC_ESB_33925_34005",_"ESB_ECN_34305_34375")_
x_("ERC_ESB_33925_34005",_"ESB_BAL_34945_35035")_
x_("ERC_ESB_33925_34005",_"ESB_SAW_34920_34980")_
x_("ERC_ESB_33925_34005",_"ESB_SZF_34100_34160")_
x_("ERC_ESB_33925_34005",_"ESB_SAW_35280_35340")_
x_("ERC_ESB_33925_34005",_"ESB_HTY_34310_34390")_
x_("ERC_ESB_33925_34005",_"ESB_MLX_34300_34375")_
x_("ERC_ESB_33925_34005",_"ESB_ADB_35370_35450")_
x_("ERC_ESB_33925_34005",_"ESB_AYT_35100_35165")_
x_("ERC_ESB_33925_34005",_"ESB_ADA_34080_34140")_
x_("ERC_ESB_33925_34005",_"ESB_TZX_34920_35000")_
x_("ERC_ESB_33925_34005",_"ESB_MQM_35210_35305")_
x_("ERC_ESB_33925_34005",_"ESB_AJI_34930_35025")_
x_("ERC_ESB_33925_34005",_"ESB_VAN_35005_35100")_
x_("ERC_ESB_33925_34005",_"ESB_ECN_35220_35290")_
x_("ERC_ESB_33925_34005",_"ESB_YEI_34315_34375")_
x_("ERC_ESB_33925_34005",_"ESB_ERC_35250_35330")_
x_("ERC_ESB_33925_34005",_"ESB_GNY_34060_34135")_
x_("ERC_ESB_33925_34005",_"ESB_SAW_35160_35220")_
x_("VAS_SAW_33925_34005",_"SAW_ADB_34050_34110")_
x_("VAS_SAW_33925_34005",_"SAW_NAJ_35030_35170")_
x_("VAS_SAW_33925_34005",_"SAW_ESB_35040_35100")_
x_("VAS_SAW_33925_34005",_"SAW_ADB_34800_34860")_
x_("VAS_SAW_33925_34005",_"SAW_TZX_35025_35125")_
x_("VAS_SAW_33925_34005",_"SAW_ESB_35400_35460")_
x_("VAS_SAW_33925_34005",_"SAW_AYT_35265_35330")_
x_("VAS_SAW_33925_34005",_"SAW_ESB_34860_34920")_
x_("VAS_SAW_33925_34005",_"SAW_ASR_34095_34180")_
x_("ESB_ADB_33930_34010",_"ADB_SAW_34895_34955")_
x_("ESB_ADB_33930_34010",_"ADB_SAW_34145_34205")_
x_("ESB_ADB_33930_34010",_"ADB_ESB_34045_34120")_
x_("AYT_SAW_33930_33995",_"SAW_ADB_34050_34110")_
x_("AYT_SAW_33930_33995",_"SAW_NAJ_35030_35170")_
x_("AYT_SAW_33930_33995",_"SAW_ESB_35040_35100")_
x_("AYT_SAW_33930_33995",_"SAW_ADB_34800_34860")_
x_("AYT_SAW_33930_33995",_"SAW_TZX_35025_35125")_
x_("AYT_SAW_33930_33995",_"SAW_ESB_35400_35460")_
x_("AYT_SAW_33930_33995",_"SAW_AYT_35265_35330")_
x_("AYT_SAW_33930_33995",_"SAW_ESB_34860_34920")_
x_("AYT_SAW_33930_33995",_"SAW_ASR_34095_34180")_
x_("SAW_ESB_33960_34020",_"ESB_ECN_34305_34375")_
x_("SAW_ESB_33960_34020",_"ESB_BAL_34945_35035")_
x_("SAW_ESB_33960_34020",_"ESB_SAW_34920_34980")_
x_("SAW_ESB_33960_34020",_"ESB_SZF_34100_34160")_
x_("SAW_ESB_33960_34020",_"ESB_SAW_35280_35340")_
x_("SAW_ESB_33960_34020",_"ESB_HTY_34310_34390")_
x_("SAW_ESB_33960_34020",_"ESB_MLX_34300_34375")_
x_("SAW_ESB_33960_34020",_"ESB_ADB_35370_35450")_
x_("SAW_ESB_33960_34020",_"ESB_AYT_35100_35165")_
x_("SAW_ESB_33960_34020",_"ESB_ADA_34080_34140")_
x_("SAW_ESB_33960_34020",_"ESB_TZX_34920_35000")_
x_("SAW_ESB_33960_34020",_"ESB_MQM_35210_35305")_
x_("SAW_ESB_33960_34020",_"ESB_AJI_34930_35025")_
x_("SAW_ESB_33960_34020",_"ESB_VAN_35005_35100")_
x_("SAW_ESB_33960_34020",_"ESB_ECN_35220_35290")_
x_("SAW_ESB_33960_34020",_"ESB_YEI_34315_34375")_
x_("SAW_ESB_33960_34020",_"ESB_ERC_35250_35330")_
x_("SAW_ESB_33960_34020",_"ESB_GNY_34060_34135")_
x_("SAW_ESB_33960_34020",_"ESB_SAW_35160_35220")_
x_("ADB_ESB_34045_34120",_"ESB_ECN_34305_34375")_
x_("ADB_ESB_34045_34120",_"ESB_ADA_35520_35580")_
x_("ADB_ESB_34045_34120",_"ESB_SZF_35540_35600")_
x_("ADB_ESB_34045_34120",_"ESB_BAL_34945_35035")_
x_("ADB_ESB_34045_34120",_"ESB_SAW_34920_34980")_
x_("ADB_ESB_34045_34120",_"ESB_SAW_35280_35340")_
x_("ADB_ESB_34045_34120",_"ESB_HTY_34310_34390")_
x_("ADB_ESB_34045_34120",_"ESB_MLX_34300_34375")_
x_("ADB_ESB_34045_34120",_"ESB_ADB_35370_35450")_
x_("ADB_ESB_34045_34120",_"ESB_AYT_35100_35165")_
x_("ADB_ESB_34045_34120",_"ESB_TZX_34920_35000")_
x_("ADB_ESB_34045_34120",_"ESB_MQM_35210_35305")_
x_("ADB_ESB_34045_34120",_"ESB_AJI_34930_35025")_
x_("ADB_ESB_34045_34120",_"ESB_VAN_35005_35100")_
x_("ADB_ESB_34045_34120",_"ESB_ECN_35220_35290")_
x_("ADB_ESB_34045_34120",_"ESB_YEI_34315_34375")_
x_("ADB_ESB_34045_34120",_"ESB_ERC_35250_35330")_
x_("ADB_ESB_34045_34120",_"ESB_GNY_35500_35575")_
x_("ADB_ESB_34045_34120",_"ESB_SAW_35160_35220")_
x_("SAW_ADB_34050_34110",_"ADB_SAW_34895_34955")_
x_("SAW_ADB_34050_34110",_"ADB_ESB_35485_35560")_
x_("SAW_ADB_34050_34110",_"ADB_SAW_34145_34205")_
x_("ESB_GNY_34060_34135",_"GNY_ESB_34170_34250")_
x_("ESB_ADA_34080_34140",_"ADA_ESB_34180_34245")_
x_("SAW_ASR_34095_34180",_"ASR_SAW_34215_34305")_
x_("ESB_SZF_34100_34160",_"SZF_ESB_34195_34255")_
x_("ADB_SAW_34145_34205",_"SAW_NAJ_35030_35170")_
x_("ADB_SAW_34145_34205",_"SAW_ESB_35040_35100")_
x_("ADB_SAW_34145_34205",_"SAW_ADB_34800_34860")_
x_("ADB_SAW_34145_34205",_"SAW_ADB_35490_35550")_
x_("ADB_SAW_34145_34205",_"SAW_TZX_35025_35125")_
x_("ADB_SAW_34145_34205",_"SAW_ESB_35400_35460")_
x_("ADB_SAW_34145_34205",_"SAW_AYT_35265_35330")_
x_("ADB_SAW_34145_34205",_"SAW_KYA_35550_35620")_
x_("ADB_SAW_34145_34205",_"SAW_ASR_35535_35620")_
x_("ADB_SAW_34145_34205",_"SAW_ESB_34860_34920")_
x_("GNY_ESB_34170_34250",_"ESB_ECN_34305_34375")_
x_("GNY_ESB_34170_34250",_"ESB_ADA_35520_35580")_
x_("GNY_ESB_34170_34250",_"ESB_SZF_35540_35600")_
x_("GNY_ESB_34170_34250",_"ESB_BAL_34945_35035")_
x_("GNY_ESB_34170_34250",_"ESB_SAW_34920_34980")_
x_("GNY_ESB_34170_34250",_"ESB_SAW_35280_35340")_
x_("GNY_ESB_34170_34250",_"ESB_HTY_34310_34390")_
x_("GNY_ESB_34170_34250",_"ESB_MLX_34300_34375")_
x_("GNY_ESB_34170_34250",_"ESB_ADB_35370_35450")_
x_("GNY_ESB_34170_34250",_"ESB_AYT_35100_35165")_
x_("GNY_ESB_34170_34250",_"ESB_TZX_34920_35000")_
x_("GNY_ESB_34170_34250",_"ESB_MQM_35210_35305")_
x_("GNY_ESB_34170_34250",_"ESB_AJI_34930_35025")_
x_("GNY_ESB_34170_34250",_"ESB_VAN_35005_35100")_
x_("GNY_ESB_34170_34250",_"ESB_ECN_35220_35290")_
x_("GNY_ESB_34170_34250",_"ESB_YEI_34315_34375")_
x_("GNY_ESB_34170_34250",_"ESB_ERC_35250_35330")_
x_("GNY_ESB_34170_34250",_"ESB_GNY_35500_35575")_
x_("GNY_ESB_34170_34250",_"ESB_SAW_35160_35220")_
x_("ADA_ESB_34180_34245",_"ESB_ECN_34305_34375")_
x_("ADA_ESB_34180_34245",_"ESB_ADA_35520_35580")_
x_("ADA_ESB_34180_34245",_"ESB_SZF_35540_35600")_
x_("ADA_ESB_34180_34245",_"ESB_BAL_34945_35035")_
x_("ADA_ESB_34180_34245",_"ESB_SAW_34920_34980")_
x_("ADA_ESB_34180_34245",_"ESB_SAW_35280_35340")_
x_("ADA_ESB_34180_34245",_"ESB_HTY_34310_34390")_
x_("ADA_ESB_34180_34245",_"ESB_MLX_34300_34375")_
x_("ADA_ESB_34180_34245",_"ESB_ADB_35370_35450")_
x_("ADA_ESB_34180_34245",_"ESB_AYT_35100_35165")_
x_("ADA_ESB_34180_34245",_"ESB_TZX_34920_35000")_
x_("ADA_ESB_34180_34245",_"ESB_MQM_35210_35305")_
x_("ADA_ESB_34180_34245",_"ESB_AJI_34930_35025")_
x_("ADA_ESB_34180_34245",_"ESB_VAN_35005_35100")_
x_("ADA_ESB_34180_34245",_"ESB_ECN_35220_35290")_
x_("ADA_ESB_34180_34245",_"ESB_YEI_34315_34375")_
x_("ADA_ESB_34180_34245",_"ESB_ERC_35250_35330")_
x_("ADA_ESB_34180_34245",_"ESB_GNY_35500_35575")_
x_("ADA_ESB_34180_34245",_"ESB_SAW_35160_35220")_
x_("SZF_ESB_34195_34255",_"ESB_ECN_34305_34375")_
x_("SZF_ESB_34195_34255",_"ESB_ADA_35520_35580")_
x_("SZF_ESB_34195_34255",_"ESB_SZF_35540_35600")_
x_("SZF_ESB_34195_34255",_"ESB_BAL_34945_35035")_
x_("SZF_ESB_34195_34255",_"ESB_SAW_34920_34980")_
x_("SZF_ESB_34195_34255",_"ESB_SAW_35280_35340")_
x_("SZF_ESB_34195_34255",_"ESB_HTY_34310_34390")_
x_("SZF_ESB_34195_34255",_"ESB_MLX_34300_34375")_
x_("SZF_ESB_34195_34255",_"ESB_ADB_35370_35450")_
x_("SZF_ESB_34195_34255",_"ESB_AYT_35100_35165")_
x_("SZF_ESB_34195_34255",_"ESB_TZX_34920_35000")_
x_("SZF_ESB_34195_34255",_"ESB_MQM_35210_35305")_
x_("SZF_ESB_34195_34255",_"ESB_AJI_34930_35025")_
x_("SZF_ESB_34195_34255",_"ESB_VAN_35005_35100")_
x_("SZF_ESB_34195_34255",_"ESB_ECN_35220_35290")_
x_("SZF_ESB_34195_34255",_"ESB_YEI_34315_34375")_
x_("SZF_ESB_34195_34255",_"ESB_ERC_35250_35330")_
x_("SZF_ESB_34195_34255",_"ESB_GNY_35500_35575")_
x_("SZF_ESB_34195_34255",_"ESB_SAW_35160_35220")_
x_("ASR_SAW_34215_34305",_"SAW_NAJ_35030_35170")_
x_("ASR_SAW_34215_34305",_"SAW_ESB_35040_35100")_
x_("ASR_SAW_34215_34305",_"SAW_ADB_34800_34860")_
x_("ASR_SAW_34215_34305",_"SAW_ADB_35490_35550")_
x_("ASR_SAW_34215_34305",_"SAW_TZX_35025_35125")_
x_("ASR_SAW_34215_34305",_"SAW_ESB_35400_35460")_
x_("ASR_SAW_34215_34305",_"SAW_AYT_35265_35330")_
x_("ASR_SAW_34215_34305",_"SAW_KYA_35550_35620")_
x_("ASR_SAW_34215_34305",_"SAW_ASR_35535_35620")_
x_("ASR_SAW_34215_34305",_"SAW_ESB_34860_34920")_
x_("ESB_MLX_34300_34375",_"MLX_ESB_34800_34875")_
x_("ESB_ECN_34305_34375",_"ECN_ESB_35615_35685")_
x_("ESB_ECN_34305_34375",_"ECN_HTY_35400_35465")_
x_("ESB_ECN_34305_34375",_"ECN_ESB_34800_34870")_
x_("ESB_HTY_34310_34390",_"HTY_ECN_35505_35570")_
x_("ESB_HTY_34310_34390",_"HTY_ESB_34800_34875")_
x_("ESB_YEI_34315_34375",_"YEI_ESB_34800_34860")_
x_("SAW_ADB_34800_34860",_"ADB_SAW_35585_35645")_
x_("SAW_ADB_34800_34860",_"ADB_SAW_34895_34955")_
x_("SAW_ADB_34800_34860",_"ADB_ESB_35485_35560")_
x_("ECN_ESB_34800_34870",_"ESB_ADA_35520_35580")_
x_("ECN_ESB_34800_34870",_"ESB_SZF_35540_35600")_
x_("ECN_ESB_34800_34870",_"ESB_HTY_35750_35830")_
x_("ECN_ESB_34800_34870",_"ESB_ECN_35745_35815")_
x_("ECN_ESB_34800_34870",_"ESB_BAL_34945_35035")_
x_("ECN_ESB_34800_34870",_"ESB_SAW_34920_34980")_
x_("ECN_ESB_34800_34870",_"ESB_SAW_35280_35340")_
x_("ECN_ESB_34800_34870",_"ESB_ADB_35370_35450")_
x_("ECN_ESB_34800_34870",_"ESB_AYT_35100_35165")_
x_("ECN_ESB_34800_34870",_"ESB_TZX_34920_35000")_
x_("ECN_ESB_34800_34870",_"ESB_MQM_35210_35305")_
x_("ECN_ESB_34800_34870",_"ESB_AJI_34930_35025")_
x_("ECN_ESB_34800_34870",_"ESB_VAN_35005_35100")_
x_("ECN_ESB_34800_34870",_"ESB_YEI_35755_35815")_
x_("ECN_ESB_34800_34870",_"ESB_ECN_35220_35290")_
x_("ECN_ESB_34800_34870",_"ESB_ERC_35250_35330")_
x_("ECN_ESB_34800_34870",_"ESB_MLX_35740_35815")_
x_("ECN_ESB_34800_34870",_"ESB_GNY_35500_35575")_
x_("ECN_ESB_34800_34870",_"ESB_SAW_35160_35220")_
x_("YEI_ESB_34800_34860",_"ESB_ADA_35520_35580")_
x_("YEI_ESB_34800_34860",_"ESB_SZF_35540_35600")_
x_("YEI_ESB_34800_34860",_"ESB_HTY_35750_35830")_
x_("YEI_ESB_34800_34860",_"ESB_ECN_35745_35815")_
x_("YEI_ESB_34800_34860",_"ESB_BAL_34945_35035")_
x_("YEI_ESB_34800_34860",_"ESB_SAW_34920_34980")_
x_("YEI_ESB_34800_34860",_"ESB_SAW_35280_35340")_
x_("YEI_ESB_34800_34860",_"ESB_ADB_35370_35450")_
x_("YEI_ESB_34800_34860",_"ESB_AYT_35100_35165")_
x_("YEI_ESB_34800_34860",_"ESB_TZX_34920_35000")_
x_("YEI_ESB_34800_34860",_"ESB_MQM_35210_35305")_
x_("YEI_ESB_34800_34860",_"ESB_AJI_34930_35025")_
x_("YEI_ESB_34800_34860",_"ESB_VAN_35005_35100")_
x_("YEI_ESB_34800_34860",_"ESB_YEI_35755_35815")_
x_("YEI_ESB_34800_34860",_"ESB_ECN_35220_35290")_
x_("YEI_ESB_34800_34860",_"ESB_ERC_35250_35330")_
x_("YEI_ESB_34800_34860",_"ESB_MLX_35740_35815")_
x_("YEI_ESB_34800_34860",_"ESB_GNY_35500_35575")_
x_("YEI_ESB_34800_34860",_"ESB_SAW_35160_35220")_
x_("MLX_ESB_34800_34875",_"ESB_ADA_35520_35580")_
x_("MLX_ESB_34800_34875",_"ESB_SZF_35540_35600")_
x_("MLX_ESB_34800_34875",_"ESB_HTY_35750_35830")_
x_("MLX_ESB_34800_34875",_"ESB_ECN_35745_35815")_
x_("MLX_ESB_34800_34875",_"ESB_BAL_34945_35035")_
x_("MLX_ESB_34800_34875",_"ESB_SAW_34920_34980")_
x_("MLX_ESB_34800_34875",_"ESB_SAW_35280_35340")_
x_("MLX_ESB_34800_34875",_"ESB_ADB_35370_35450")_
x_("MLX_ESB_34800_34875",_"ESB_AYT_35100_35165")_
x_("MLX_ESB_34800_34875",_"ESB_TZX_34920_35000")_
x_("MLX_ESB_34800_34875",_"ESB_MQM_35210_35305")_
x_("MLX_ESB_34800_34875",_"ESB_AJI_34930_35025")_
x_("MLX_ESB_34800_34875",_"ESB_VAN_35005_35100")_
x_("MLX_ESB_34800_34875",_"ESB_YEI_35755_35815")_
x_("MLX_ESB_34800_34875",_"ESB_ECN_35220_35290")_
x_("MLX_ESB_34800_34875",_"ESB_ERC_35250_35330")_
x_("MLX_ESB_34800_34875",_"ESB_MLX_35740_35815")_
x_("MLX_ESB_34800_34875",_"ESB_GNY_35500_35575")_
x_("MLX_ESB_34800_34875",_"ESB_SAW_35160_35220")_
x_("HTY_ESB_34800_34875",_"ESB_ADA_35520_35580")_
x_("HTY_ESB_34800_34875",_"ESB_SZF_35540_35600")_
x_("HTY_ESB_34800_34875",_"ESB_HTY_35750_35830")_
x_("HTY_ESB_34800_34875",_"ESB_ECN_35745_35815")_
x_("HTY_ESB_34800_34875",_"ESB_BAL_34945_35035")_
x_("HTY_ESB_34800_34875",_"ESB_SAW_34920_34980")_
x_("HTY_ESB_34800_34875",_"ESB_SAW_35280_35340")_
x_("HTY_ESB_34800_34875",_"ESB_ADB_35370_35450")_
x_("HTY_ESB_34800_34875",_"ESB_AYT_35100_35165")_
x_("HTY_ESB_34800_34875",_"ESB_TZX_34920_35000")_
x_("HTY_ESB_34800_34875",_"ESB_MQM_35210_35305")_
x_("HTY_ESB_34800_34875",_"ESB_AJI_34930_35025")_
x_("HTY_ESB_34800_34875",_"ESB_VAN_35005_35100")_
x_("HTY_ESB_34800_34875",_"ESB_YEI_35755_35815")_
x_("HTY_ESB_34800_34875",_"ESB_ECN_35220_35290")_
x_("HTY_ESB_34800_34875",_"ESB_ERC_35250_35330")_
x_("HTY_ESB_34800_34875",_"ESB_MLX_35740_35815")_
x_("HTY_ESB_34800_34875",_"ESB_GNY_35500_35575")_
x_("HTY_ESB_34800_34875",_"ESB_SAW_35160_35220")_
x_("SAW_ESB_34860_34920",_"ESB_TZX_36360_36440")_
x_("SAW_ESB_34860_34920",_"ESB_ADA_35520_35580")_
x_("SAW_ESB_34860_34920",_"ESB_SZF_35540_35600")_
x_("SAW_ESB_34860_34920",_"ESB_HTY_35750_35830")_
x_("SAW_ESB_34860_34920",_"ESB_ECN_35745_35815")_
x_("SAW_ESB_34860_34920",_"ESB_SAW_35280_35340")_
x_("SAW_ESB_34860_34920",_"ESB_ADB_35370_35450")_
x_("SAW_ESB_34860_34920",_"ESB_AYT_35100_35165")_
x_("SAW_ESB_34860_34920",_"ESB_MQM_35210_35305")_
x_("SAW_ESB_34860_34920",_"ESB_VAN_35005_35100")_
x_("SAW_ESB_34860_34920",_"ESB_SAW_36360_36420")_
x_("SAW_ESB_34860_34920",_"ESB_YEI_35755_35815")_
x_("SAW_ESB_34860_34920",_"ESB_ECN_35220_35290")_
x_("SAW_ESB_34860_34920",_"ESB_ERC_35250_35330")_
x_("SAW_ESB_34860_34920",_"ESB_MLX_35740_35815")_
x_("SAW_ESB_34860_34920",_"ESB_GNY_35500_35575")_
x_("SAW_ESB_34860_34920",_"ESB_SAW_35160_35220")_
x_("ADB_SAW_34895_34955",_"SAW_NAJ_35030_35170")_
x_("ADB_SAW_34895_34955",_"SAW_ESB_35040_35100")_
x_("ADB_SAW_34895_34955",_"SAW_ADB_35490_35550")_
x_("ADB_SAW_34895_34955",_"SAW_TZX_35025_35125")_
x_("ADB_SAW_34895_34955",_"SAW_ADB_36240_36300")_
x_("ADB_SAW_34895_34955",_"SAW_ESB_35400_35460")_
x_("ADB_SAW_34895_34955",_"SAW_AYT_35265_35330")_
x_("ADB_SAW_34895_34955",_"SAW_KYA_35550_35620")_
x_("ADB_SAW_34895_34955",_"SAW_ESB_36300_36360")_
x_("ADB_SAW_34895_34955",_"SAW_ASR_35535_35620")_
x_("ESB_SAW_34920_34980",_"SAW_NAJ_35030_35170")_
x_("ESB_SAW_34920_34980",_"SAW_ESB_35040_35100")_
x_("ESB_SAW_34920_34980",_"SAW_ADB_35490_35550")_
x_("ESB_SAW_34920_34980",_"SAW_TZX_35025_35125")_
x_("ESB_SAW_34920_34980",_"SAW_ADB_36240_36300")_
x_("ESB_SAW_34920_34980",_"SAW_ESB_35400_35460")_
x_("ESB_SAW_34920_34980",_"SAW_AYT_35265_35330")_
x_("ESB_SAW_34920_34980",_"SAW_KYA_35550_35620")_
x_("ESB_SAW_34920_34980",_"SAW_ESB_36300_36360")_
x_("ESB_SAW_34920_34980",_"SAW_ASR_35535_35620")_
x_("ESB_TZX_34920_35000",_"TZX_SAW_35160_35265")_
x_("ESB_TZX_34920_35000",_"TZX_ESB_35035_35115")_
x_("ESB_AJI_34930_35025",_"AJI_ESB_35060_35165")_
x_("ESB_BAL_34945_35035",_"BAL_ESB_35070_35165")_
x_("ESB_VAN_35005_35100",_"VAN_ESB_35135_35240")_
x_("SAW_TZX_35025_35125",_"TZX_SAW_35160_35265")_
x_("SAW_TZX_35025_35125",_"TZX_ESB_36475_36555")_
x_("SAW_NAJ_35030_35170",_"NAJ_SAW_35235_35390")_
x_("TZX_ESB_35035_35115",_"ESB_TZX_36360_36440")_
x_("TZX_ESB_35035_35115",_"ESB_ADA_35520_35580")_
x_("TZX_ESB_35035_35115",_"ESB_SZF_35540_35600")_
x_("TZX_ESB_35035_35115",_"ESB_HTY_35750_35830")_
x_("TZX_ESB_35035_35115",_"ESB_ECN_35745_35815")_
x_("TZX_ESB_35035_35115",_"ESB_BAL_36385_36475")_
x_("TZX_ESB_35035_35115",_"ESB_AJI_36370_36465")_
x_("TZX_ESB_35035_35115",_"ESB_SAW_35280_35340")_
x_("TZX_ESB_35035_35115",_"ESB_ADB_35370_35450")_
x_("TZX_ESB_35035_35115",_"ESB_MQM_35210_35305")_
x_("TZX_ESB_35035_35115",_"ESB_SAW_36360_36420")_
x_("TZX_ESB_35035_35115",_"ESB_YEI_35755_35815")_
x_("TZX_ESB_35035_35115",_"ESB_ECN_35220_35290")_
x_("TZX_ESB_35035_35115",_"ESB_ERC_35250_35330")_
x_("TZX_ESB_35035_35115",_"ESB_MLX_35740_35815")_
x_("TZX_ESB_35035_35115",_"ESB_VAN_36445_36540")_
x_("TZX_ESB_35035_35115",_"ESB_GNY_35500_35575")_
x_("TZX_ESB_35035_35115",_"ESB_SAW_35160_35220")_
x_("SAW_ESB_35040_35100",_"ESB_TZX_36360_36440")_
x_("SAW_ESB_35040_35100",_"ESB_ADA_35520_35580")_
x_("SAW_ESB_35040_35100",_"ESB_SZF_35540_35600")_
x_("SAW_ESB_35040_35100",_"ESB_HTY_35750_35830")_
x_("SAW_ESB_35040_35100",_"ESB_ECN_35745_35815")_
x_("SAW_ESB_35040_35100",_"ESB_BAL_36385_36475")_
x_("SAW_ESB_35040_35100",_"ESB_AJI_36370_36465")_
x_("SAW_ESB_35040_35100",_"ESB_SAW_35280_35340")_
x_("SAW_ESB_35040_35100",_"ESB_ADB_35370_35450")_
x_("SAW_ESB_35040_35100",_"ESB_MQM_35210_35305")_
x_("SAW_ESB_35040_35100",_"ESB_SAW_36360_36420")_
x_("SAW_ESB_35040_35100",_"ESB_YEI_35755_35815")_
x_("SAW_ESB_35040_35100",_"ESB_ECN_35220_35290")_
x_("SAW_ESB_35040_35100",_"ESB_ERC_35250_35330")_
x_("SAW_ESB_35040_35100",_"ESB_MLX_35740_35815")_
x_("SAW_ESB_35040_35100",_"ESB_VAN_36445_36540")_
x_("SAW_ESB_35040_35100",_"ESB_GNY_35500_35575")_
x_("SAW_ESB_35040_35100",_"ESB_SAW_35160_35220")_
x_("AJI_ESB_35060_35165",_"ESB_TZX_36360_36440")_
x_("AJI_ESB_35060_35165",_"ESB_ADA_35520_35580")_
x_("AJI_ESB_35060_35165",_"ESB_SZF_35540_35600")_
x_("AJI_ESB_35060_35165",_"ESB_HTY_35750_35830")_
x_("AJI_ESB_35060_35165",_"ESB_ECN_35745_35815")_
x_("AJI_ESB_35060_35165",_"ESB_BAL_36385_36475")_
x_("AJI_ESB_35060_35165",_"ESB_AJI_36370_36465")_
x_("AJI_ESB_35060_35165",_"ESB_SAW_35280_35340")_
x_("AJI_ESB_35060_35165",_"ESB_ADB_35370_35450")_
x_("AJI_ESB_35060_35165",_"ESB_MQM_35210_35305")_
x_("AJI_ESB_35060_35165",_"ESB_SAW_36360_36420")_
x_("AJI_ESB_35060_35165",_"ESB_YEI_35755_35815")_
x_("AJI_ESB_35060_35165",_"ESB_ECN_35220_35290")_
x_("AJI_ESB_35060_35165",_"ESB_ERC_35250_35330")_
x_("AJI_ESB_35060_35165",_"ESB_MLX_35740_35815")_
x_("AJI_ESB_35060_35165",_"ESB_VAN_36445_36540")_
x_("AJI_ESB_35060_35165",_"ESB_GNY_35500_35575")_
x_("AJI_ESB_35060_35165",_"ESB_SAW_36600_36660")_
x_("BAL_ESB_35070_35165",_"ESB_TZX_36360_36440")_
x_("BAL_ESB_35070_35165",_"ESB_ADA_35520_35580")_
x_("BAL_ESB_35070_35165",_"ESB_SZF_35540_35600")_
x_("BAL_ESB_35070_35165",_"ESB_HTY_35750_35830")_
x_("BAL_ESB_35070_35165",_"ESB_ECN_35745_35815")_
x_("BAL_ESB_35070_35165",_"ESB_BAL_36385_36475")_
x_("BAL_ESB_35070_35165",_"ESB_AJI_36370_36465")_
x_("BAL_ESB_35070_35165",_"ESB_SAW_35280_35340")_
x_("BAL_ESB_35070_35165",_"ESB_ADB_35370_35450")_
x_("BAL_ESB_35070_35165",_"ESB_MQM_35210_35305")_
x_("BAL_ESB_35070_35165",_"ESB_SAW_36360_36420")_
x_("BAL_ESB_35070_35165",_"ESB_YEI_35755_35815")_
x_("BAL_ESB_35070_35165",_"ESB_ECN_35220_35290")_
x_("BAL_ESB_35070_35165",_"ESB_ERC_35250_35330")_
x_("BAL_ESB_35070_35165",_"ESB_MLX_35740_35815")_
x_("BAL_ESB_35070_35165",_"ESB_VAN_36445_36540")_
x_("BAL_ESB_35070_35165",_"ESB_GNY_35500_35575")_
x_("BAL_ESB_35070_35165",_"ESB_SAW_36600_36660")_
x_("ESB_AYT_35100_35165",_"AYT_SAW_35370_35435")_
x_("ESB_AYT_35100_35165",_"AYT_ESB_35200_35265")_
x_("VAN_ESB_35135_35240",_"ESB_TZX_36360_36440")_
x_("VAN_ESB_35135_35240",_"ESB_ADA_35520_35580")_
x_("VAN_ESB_35135_35240",_"ESB_SZF_35540_35600")_
x_("VAN_ESB_35135_35240",_"ESB_HTY_35750_35830")_
x_("VAN_ESB_35135_35240",_"ESB_MQM_36650_36745")_
x_("VAN_ESB_35135_35240",_"ESB_ECN_35745_35815")_
x_("VAN_ESB_35135_35240",_"ESB_BAL_36385_36475")_
x_("VAN_ESB_35135_35240",_"ESB_AJI_36370_36465")_
x_("VAN_ESB_35135_35240",_"ESB_SAW_35280_35340")_
x_("VAN_ESB_35135_35240",_"ESB_ECN_36660_36730")_
x_("VAN_ESB_35135_35240",_"ESB_ADB_35370_35450")_
x_("VAN_ESB_35135_35240",_"ESB_SAW_36360_36420")_
x_("VAN_ESB_35135_35240",_"ESB_YEI_35755_35815")_
x_("VAN_ESB_35135_35240",_"ESB_MLX_35740_35815")_
x_("VAN_ESB_35135_35240",_"ESB_VAN_36445_36540")_
x_("VAN_ESB_35135_35240",_"ESB_GNY_35500_35575")_
x_("VAN_ESB_35135_35240",_"ESB_SAW_36600_36660")_
x_("ESB_SAW_35160_35220",_"SAW_ESB_36480_36540")_
x_("ESB_SAW_35160_35220",_"SAW_ADB_35490_35550")_
x_("ESB_SAW_35160_35220",_"SAW_ADB_36240_36300")_
x_("ESB_SAW_35160_35220",_"SAW_ESB_35400_35460")_
x_("ESB_SAW_35160_35220",_"SAW_AYT_35265_35330")_
x_("ESB_SAW_35160_35220",_"SAW_KYA_35550_35620")_
x_("ESB_SAW_35160_35220",_"SAW_ESB_36300_36360")_
x_("ESB_SAW_35160_35220",_"SAW_TZX_36465_36565")_
x_("ESB_SAW_35160_35220",_"SAW_ASR_35535_35620")_
x_("TZX_SAW_35160_35265",_"SAW_ESB_36480_36540")_
x_("TZX_SAW_35160_35265",_"SAW_ADB_35490_35550")_
x_("TZX_SAW_35160_35265",_"SAW_ADB_36240_36300")_
x_("TZX_SAW_35160_35265",_"SAW_ESB_35400_35460")_
x_("TZX_SAW_35160_35265",_"SAW_KYA_35550_35620")_
x_("TZX_SAW_35160_35265",_"SAW_VAS_36690_36770")_
x_("TZX_SAW_35160_35265",_"SAW_ESB_36300_36360")_
x_("TZX_SAW_35160_35265",_"SAW_TZX_36465_36565")_
x_("TZX_SAW_35160_35265",_"SAW_ASR_35535_35620")_
x_("TZX_SAW_35160_35265",_"SAW_AYT_36705_36770")_
x_("AYT_ESB_35200_35265",_"ESB_TZX_36360_36440")_
x_("AYT_ESB_35200_35265",_"ESB_ADA_35520_35580")_
x_("AYT_ESB_35200_35265",_"ESB_SZF_35540_35600")_
x_("AYT_ESB_35200_35265",_"ESB_HTY_35750_35830")_
x_("AYT_ESB_35200_35265",_"ESB_MQM_36650_36745")_
x_("AYT_ESB_35200_35265",_"ESB_ECN_35745_35815")_
x_("AYT_ESB_35200_35265",_"ESB_BAL_36385_36475")_
x_("AYT_ESB_35200_35265",_"ESB_AJI_36370_36465")_
x_("AYT_ESB_35200_35265",_"ESB_ECN_36660_36730")_
x_("AYT_ESB_35200_35265",_"ESB_ADB_35370_35450")_
x_("AYT_ESB_35200_35265",_"ESB_SAW_36360_36420")_
x_("AYT_ESB_35200_35265",_"ESB_YEI_35755_35815")_
x_("AYT_ESB_35200_35265",_"ESB_MLX_35740_35815")_
x_("AYT_ESB_35200_35265",_"ESB_VAN_36445_36540")_
x_("AYT_ESB_35200_35265",_"ESB_ERC_36690_36770")_
x_("AYT_ESB_35200_35265",_"ESB_GNY_35500_35575")_
x_("AYT_ESB_35200_35265",_"ESB_SAW_36600_36660")_
x_("ESB_MQM_35210_35305",_"MQM_ESB_35340_35435")_
x_("ESB_ECN_35220_35290",_"ECN_ESB_35615_35685")_
x_("ESB_ECN_35220_35290",_"ECN_HTY_35400_35465")_
x_("ESB_ECN_35220_35290",_"ECN_ESB_36240_36310")_
x_("NAJ_SAW_35235_35390",_"SAW_ESB_36480_36540")_
x_("NAJ_SAW_35235_35390",_"SAW_ADB_35490_35550")_
x_("NAJ_SAW_35235_35390",_"SAW_ADB_36240_36300")_
x_("NAJ_SAW_35235_35390",_"SAW_KYA_35550_35620")_
x_("NAJ_SAW_35235_35390",_"SAW_VAS_36690_36770")_
x_("NAJ_SAW_35235_35390",_"SAW_ESB_36300_36360")_
x_("NAJ_SAW_35235_35390",_"SAW_TZX_36465_36565")_
x_("NAJ_SAW_35235_35390",_"SAW_ASR_35535_35620")_
x_("NAJ_SAW_35235_35390",_"SAW_AYT_36705_36770")_
x_("ESB_ERC_35250_35330",_"ERC_ESB_35365_35445")_
x_("SAW_AYT_35265_35330",_"AYT_SAW_35370_35435")_
x_("ESB_SAW_35280_35340",_"SAW_ESB_36480_36540")_
x_("ESB_SAW_35280_35340",_"SAW_ADB_35490_35550")_
x_("ESB_SAW_35280_35340",_"SAW_ADB_36240_36300")_
x_("ESB_SAW_35280_35340",_"SAW_ESB_35400_35460")_
x_("ESB_SAW_35280_35340",_"SAW_KYA_35550_35620")_
x_("ESB_SAW_35280_35340",_"SAW_VAS_36690_36770")_
x_("ESB_SAW_35280_35340",_"SAW_ESB_36300_36360")_
x_("ESB_SAW_35280_35340",_"SAW_TZX_36465_36565")_
x_("ESB_SAW_35280_35340",_"SAW_ASR_35535_35620")_
x_("ESB_SAW_35280_35340",_"SAW_AYT_36705_36770")_
x_("MQM_ESB_35340_35435",_"ESB_TZX_36360_36440")_
x_("MQM_ESB_35340_35435",_"ESB_ADA_35520_35580")_
x_("MQM_ESB_35340_35435",_"ESB_ADB_36810_36890")_
x_("MQM_ESB_35340_35435",_"ESB_SZF_35540_35600")_
x_("MQM_ESB_35340_35435",_"ESB_HTY_35750_35830")_
x_("MQM_ESB_35340_35435",_"ESB_MQM_36650_36745")_
x_("MQM_ESB_35340_35435",_"ESB_ECN_35745_35815")_
x_("MQM_ESB_35340_35435",_"ESB_BAL_36385_36475")_
x_("MQM_ESB_35340_35435",_"ESB_AJI_36370_36465")_
x_("MQM_ESB_35340_35435",_"ESB_ECN_36660_36730")_
x_("MQM_ESB_35340_35435",_"ESB_SAW_36720_36780")_
x_("MQM_ESB_35340_35435",_"ESB_SAW_36360_36420")_
x_("MQM_ESB_35340_35435",_"ESB_YEI_35755_35815")_
x_("MQM_ESB_35340_35435",_"ESB_MLX_35740_35815")_
x_("MQM_ESB_35340_35435",_"ESB_VAN_36445_36540")_
x_("MQM_ESB_35340_35435",_"ESB_ERC_36690_36770")_
x_("MQM_ESB_35340_35435",_"ESB_GNY_35500_35575")_
x_("MQM_ESB_35340_35435",_"ESB_SAW_36600_36660")_
x_("ERC_ESB_35365_35445",_"ESB_TZX_36360_36440")_
x_("ERC_ESB_35365_35445",_"ESB_ADA_35520_35580")_
x_("ERC_ESB_35365_35445",_"ESB_ADB_36810_36890")_
x_("ERC_ESB_35365_35445",_"ESB_SZF_35540_35600")_
x_("ERC_ESB_35365_35445",_"ESB_HTY_35750_35830")_
x_("ERC_ESB_35365_35445",_"ESB_MQM_36650_36745")_
x_("ERC_ESB_35365_35445",_"ESB_ECN_35745_35815")_
x_("ERC_ESB_35365_35445",_"ESB_BAL_36385_36475")_
x_("ERC_ESB_35365_35445",_"ESB_AJI_36370_36465")_
x_("ERC_ESB_35365_35445",_"ESB_ECN_36660_36730")_
x_("ERC_ESB_35365_35445",_"ESB_SAW_36720_36780")_
x_("ERC_ESB_35365_35445",_"ESB_SAW_36360_36420")_
x_("ERC_ESB_35365_35445",_"ESB_YEI_35755_35815")_
x_("ERC_ESB_35365_35445",_"ESB_MLX_35740_35815")_
x_("ERC_ESB_35365_35445",_"ESB_VAN_36445_36540")_
x_("ERC_ESB_35365_35445",_"ESB_ERC_36690_36770")_
x_("ERC_ESB_35365_35445",_"ESB_GNY_35500_35575")_
x_("ERC_ESB_35365_35445",_"ESB_SAW_36600_36660")_
x_("ESB_ADB_35370_35450",_"ADB_SAW_35585_35645")_
x_("ESB_ADB_35370_35450",_"ADB_ESB_35485_35560")_
x_("ESB_ADB_35370_35450",_"ADB_SAW_36335_36395")_
x_("AYT_SAW_35370_35435",_"SAW_ESB_36480_36540")_
x_("AYT_SAW_35370_35435",_"SAW_ADB_35490_35550")_
x_("AYT_SAW_35370_35435",_"SAW_ESB_36840_36900")_
x_("AYT_SAW_35370_35435",_"SAW_ADB_36240_36300")_
x_("AYT_SAW_35370_35435",_"SAW_KYA_35550_35620")_
x_("AYT_SAW_35370_35435",_"SAW_VAS_36690_36770")_
x_("AYT_SAW_35370_35435",_"SAW_ESB_36300_36360")_
x_("AYT_SAW_35370_35435",_"SAW_TZX_36465_36565")_
x_("AYT_SAW_35370_35435",_"SAW_ASR_35535_35620")_
x_("AYT_SAW_35370_35435",_"SAW_AYT_36705_36770")_
x_("SAW_ESB_35400_35460",_"ESB_TZX_36360_36440")_
x_("SAW_ESB_35400_35460",_"ESB_ADA_35520_35580")_
x_("SAW_ESB_35400_35460",_"ESB_ADB_36810_36890")_
x_("SAW_ESB_35400_35460",_"ESB_SZF_35540_35600")_
x_("SAW_ESB_35400_35460",_"ESB_HTY_35750_35830")_
x_("SAW_ESB_35400_35460",_"ESB_MQM_36650_36745")_
x_("SAW_ESB_35400_35460",_"ESB_ECN_35745_35815")_
x_("SAW_ESB_35400_35460",_"ESB_BAL_36385_36475")_
x_("SAW_ESB_35400_35460",_"ESB_AJI_36370_36465")_
x_("SAW_ESB_35400_35460",_"ESB_ECN_36660_36730")_
x_("SAW_ESB_35400_35460",_"ESB_SAW_36720_36780")_
x_("SAW_ESB_35400_35460",_"ESB_SAW_36360_36420")_
x_("SAW_ESB_35400_35460",_"ESB_YEI_35755_35815")_
x_("SAW_ESB_35400_35460",_"ESB_MLX_35740_35815")_
x_("SAW_ESB_35400_35460",_"ESB_VAN_36445_36540")_
x_("SAW_ESB_35400_35460",_"ESB_ERC_36690_36770")_
x_("SAW_ESB_35400_35460",_"ESB_GNY_35500_35575")_
x_("SAW_ESB_35400_35460",_"ESB_SAW_36600_36660")_
x_("ECN_HTY_35400_35465",_"HTY_ECN_35505_35570")_
x_("ECN_HTY_35400_35465",_"HTY_ESB_36240_36315")_
x_("ADB_ESB_35485_35560",_"ESB_SZF_36980_37040")_
x_("ADB_ESB_35485_35560",_"ESB_TZX_36360_36440")_
x_("ADB_ESB_35485_35560",_"ESB_ADB_36810_36890")_
x_("ADB_ESB_35485_35560",_"ESB_HTY_35750_35830")_
x_("ADB_ESB_35485_35560",_"ESB_MQM_36650_36745")_
x_("ADB_ESB_35485_35560",_"ESB_ECN_35745_35815")_
x_("ADB_ESB_35485_35560",_"ESB_BAL_36385_36475")_
x_("ADB_ESB_35485_35560",_"ESB_GNY_36940_37015")_
x_("ADB_ESB_35485_35560",_"ESB_ADA_36960_37020")_
x_("ADB_ESB_35485_35560",_"ESB_AJI_36370_36465")_
x_("ADB_ESB_35485_35560",_"ESB_ECN_36660_36730")_
x_("ADB_ESB_35485_35560",_"ESB_SAW_36720_36780")_
x_("ADB_ESB_35485_35560",_"ESB_SAW_36360_36420")_
x_("ADB_ESB_35485_35560",_"ESB_YEI_35755_35815")_
x_("ADB_ESB_35485_35560",_"ESB_MLX_35740_35815")_
x_("ADB_ESB_35485_35560",_"ESB_VAN_36445_36540")_
x_("ADB_ESB_35485_35560",_"ESB_ERC_36690_36770")_
x_("ADB_ESB_35485_35560",_"ESB_SAW_36600_36660")_
x_("SAW_ADB_35490_35550",_"ADB_SAW_35585_35645")_
x_("SAW_ADB_35490_35550",_"ADB_ESB_36925_37000")_
x_("SAW_ADB_35490_35550",_"ADB_SAW_36335_36395")_
x_("ESB_GNY_35500_35575",_"GNY_ESB_35610_35690")_
x_("HTY_ECN_35505_35570",_"ECN_ESB_35615_35685")_
x_("HTY_ECN_35505_35570",_"ECN_HTY_36840_36905")_
x_("HTY_ECN_35505_35570",_"ECN_ESB_36240_36310")_
x_("ESB_ADA_35520_35580",_"ADA_ESB_35620_35685")_
x_("SAW_ASR_35535_35620",_"ASR_SAW_35655_35745")_
x_("ESB_SZF_35540_35600",_"SZF_ESB_35635_35695")_
x_("SAW_KYA_35550_35620",_"KYA_SAW_35655_35725")_
x_("ADB_SAW_35585_35645",_"SAW_ESB_36480_36540")_
x_("ADB_SAW_35585_35645",_"SAW_ESB_36840_36900")_
x_("ADB_SAW_35585_35645",_"SAW_ADB_36240_36300")_
x_("ADB_SAW_35585_35645",_"SAW_KYA_36990_37060")_
x_("ADB_SAW_35585_35645",_"SAW_ASR_36975_37060")_
x_("ADB_SAW_35585_35645",_"SAW_VAS_36690_36770")_
x_("ADB_SAW_35585_35645",_"SAW_ESB_36300_36360")_
x_("ADB_SAW_35585_35645",_"SAW_TZX_36465_36565")_
x_("ADB_SAW_35585_35645",_"SAW_AYT_36705_36770")_
x_("ADB_SAW_35585_35645",_"SAW_ADB_36930_36990")_
x_("GNY_ESB_35610_35690",_"ESB_SZF_36980_37040")_
x_("GNY_ESB_35610_35690",_"ESB_TZX_36360_36440")_
x_("GNY_ESB_35610_35690",_"ESB_ADB_36810_36890")_
x_("GNY_ESB_35610_35690",_"ESB_HTY_35750_35830")_
x_("GNY_ESB_35610_35690",_"ESB_MQM_36650_36745")_
x_("GNY_ESB_35610_35690",_"ESB_ECN_35745_35815")_
x_("GNY_ESB_35610_35690",_"ESB_BAL_36385_36475")_
x_("GNY_ESB_35610_35690",_"ESB_GNY_36940_37015")_
x_("GNY_ESB_35610_35690",_"ESB_ADA_36960_37020")_
x_("GNY_ESB_35610_35690",_"ESB_AJI_36370_36465")_
x_("GNY_ESB_35610_35690",_"ESB_ECN_36660_36730")_
x_("GNY_ESB_35610_35690",_"ESB_SAW_36720_36780")_
x_("GNY_ESB_35610_35690",_"ESB_SAW_36360_36420")_
x_("GNY_ESB_35610_35690",_"ESB_YEI_35755_35815")_
x_("GNY_ESB_35610_35690",_"ESB_MLX_35740_35815")_
x_("GNY_ESB_35610_35690",_"ESB_VAN_36445_36540")_
x_("GNY_ESB_35610_35690",_"ESB_ERC_36690_36770")_
x_("GNY_ESB_35610_35690",_"ESB_SAW_36600_36660")_
x_("ECN_ESB_35615_35685",_"ESB_SZF_36980_37040")_
x_("ECN_ESB_35615_35685",_"ESB_TZX_36360_36440")_
x_("ECN_ESB_35615_35685",_"ESB_ADB_36810_36890")_
x_("ECN_ESB_35615_35685",_"ESB_HTY_35750_35830")_
x_("ECN_ESB_35615_35685",_"ESB_MQM_36650_36745")_
x_("ECN_ESB_35615_35685",_"ESB_ECN_35745_35815")_
x_("ECN_ESB_35615_35685",_"ESB_BAL_36385_36475")_
x_("ECN_ESB_35615_35685",_"ESB_GNY_36940_37015")_
x_("ECN_ESB_35615_35685",_"ESB_ADA_36960_37020")_
x_("ECN_ESB_35615_35685",_"ESB_AJI_36370_36465")_
x_("ECN_ESB_35615_35685",_"ESB_ECN_36660_36730")_
x_("ECN_ESB_35615_35685",_"ESB_SAW_36720_36780")_
x_("ECN_ESB_35615_35685",_"ESB_SAW_36360_36420")_
x_("ECN_ESB_35615_35685",_"ESB_YEI_35755_35815")_
x_("ECN_ESB_35615_35685",_"ESB_MLX_35740_35815")_
x_("ECN_ESB_35615_35685",_"ESB_VAN_36445_36540")_
x_("ECN_ESB_35615_35685",_"ESB_ERC_36690_36770")_
x_("ECN_ESB_35615_35685",_"ESB_SAW_36600_36660")_
x_("ADA_ESB_35620_35685",_"ESB_SZF_36980_37040")_
x_("ADA_ESB_35620_35685",_"ESB_TZX_36360_36440")_
x_("ADA_ESB_35620_35685",_"ESB_ADB_36810_36890")_
x_("ADA_ESB_35620_35685",_"ESB_HTY_35750_35830")_
x_("ADA_ESB_35620_35685",_"ESB_MQM_36650_36745")_
x_("ADA_ESB_35620_35685",_"ESB_ECN_35745_35815")_
x_("ADA_ESB_35620_35685",_"ESB_BAL_36385_36475")_
x_("ADA_ESB_35620_35685",_"ESB_GNY_36940_37015")_
x_("ADA_ESB_35620_35685",_"ESB_ADA_36960_37020")_
x_("ADA_ESB_35620_35685",_"ESB_AJI_36370_36465")_
x_("ADA_ESB_35620_35685",_"ESB_ECN_36660_36730")_
x_("ADA_ESB_35620_35685",_"ESB_SAW_36720_36780")_
x_("ADA_ESB_35620_35685",_"ESB_SAW_36360_36420")_
x_("ADA_ESB_35620_35685",_"ESB_YEI_35755_35815")_
x_("ADA_ESB_35620_35685",_"ESB_MLX_35740_35815")_
x_("ADA_ESB_35620_35685",_"ESB_VAN_36445_36540")_
x_("ADA_ESB_35620_35685",_"ESB_ERC_36690_36770")_
x_("ADA_ESB_35620_35685",_"ESB_SAW_36600_36660")_
x_("SZF_ESB_35635_35695",_"ESB_SZF_36980_37040")_
x_("SZF_ESB_35635_35695",_"ESB_TZX_36360_36440")_
x_("SZF_ESB_35635_35695",_"ESB_ADB_36810_36890")_
x_("SZF_ESB_35635_35695",_"ESB_HTY_35750_35830")_
x_("SZF_ESB_35635_35695",_"ESB_MQM_36650_36745")_
x_("SZF_ESB_35635_35695",_"ESB_ECN_35745_35815")_
x_("SZF_ESB_35635_35695",_"ESB_BAL_36385_36475")_
x_("SZF_ESB_35635_35695",_"ESB_GNY_36940_37015")_
x_("SZF_ESB_35635_35695",_"ESB_ADA_36960_37020")_
x_("SZF_ESB_35635_35695",_"ESB_AJI_36370_36465")_
x_("SZF_ESB_35635_35695",_"ESB_ECN_36660_36730")_
x_("SZF_ESB_35635_35695",_"ESB_SAW_36720_36780")_
x_("SZF_ESB_35635_35695",_"ESB_SAW_36360_36420")_
x_("SZF_ESB_35635_35695",_"ESB_YEI_35755_35815")_
x_("SZF_ESB_35635_35695",_"ESB_MLX_35740_35815")_
x_("SZF_ESB_35635_35695",_"ESB_VAN_36445_36540")_
x_("SZF_ESB_35635_35695",_"ESB_ERC_36690_36770")_
x_("SZF_ESB_35635_35695",_"ESB_SAW_36600_36660")_
x_("ASR_SAW_35655_35745",_"SAW_ESB_36480_36540")_
x_("ASR_SAW_35655_35745",_"SAW_ESB_36840_36900")_
x_("ASR_SAW_35655_35745",_"SAW_ADB_36240_36300")_
x_("ASR_SAW_35655_35745",_"SAW_KYA_36990_37060")_
x_("ASR_SAW_35655_35745",_"SAW_ASR_36975_37060")_
x_("ASR_SAW_35655_35745",_"SAW_VAS_36690_36770")_
x_("ASR_SAW_35655_35745",_"SAW_ESB_36300_36360")_
x_("ASR_SAW_35655_35745",_"SAW_TZX_36465_36565")_
x_("ASR_SAW_35655_35745",_"SAW_AYT_36705_36770")_
x_("ASR_SAW_35655_35745",_"SAW_ADB_36930_36990")_
x_("KYA_SAW_35655_35725",_"SAW_ESB_36480_36540")_
x_("KYA_SAW_35655_35725",_"SAW_ESB_36840_36900")_
x_("KYA_SAW_35655_35725",_"SAW_ADB_36240_36300")_
x_("KYA_SAW_35655_35725",_"SAW_KYA_36990_37060")_
x_("KYA_SAW_35655_35725",_"SAW_ASR_36975_37060")_
x_("KYA_SAW_35655_35725",_"SAW_VAS_36690_36770")_
x_("KYA_SAW_35655_35725",_"SAW_ESB_36300_36360")_
x_("KYA_SAW_35655_35725",_"SAW_TZX_36465_36565")_
x_("KYA_SAW_35655_35725",_"SAW_AYT_36705_36770")_
x_("KYA_SAW_35655_35725",_"SAW_ADB_36930_36990")_
x_("ESB_MLX_35740_35815",_"MLX_ESB_36240_36315")_
x_("ESB_ECN_35745_35815",_"ECN_ESB_37055_37125")_
x_("ESB_ECN_35745_35815",_"ECN_HTY_36840_36905")_
x_("ESB_ECN_35745_35815",_"ECN_ESB_36240_36310")_
x_("ESB_HTY_35750_35830",_"HTY_ESB_36240_36315")_
x_("ESB_HTY_35750_35830",_"HTY_ECN_36945_37010")_
x_("ESB_YEI_35755_35815",_"YEI_ESB_36240_36300")_
x_("SAW_ADB_36240_36300",_"ADB_ESB_36925_37000")_
x_("SAW_ADB_36240_36300",_"ADB_SAW_37025_37085")_
x_("SAW_ADB_36240_36300",_"ADB_SAW_36335_36395")_
x_("ECN_ESB_36240_36310",_"ESB_SZF_36980_37040")_
x_("ECN_ESB_36240_36310",_"ESB_TZX_36360_36440")_
x_("ECN_ESB_36240_36310",_"ESB_ADB_36810_36890")_
x_("ECN_ESB_36240_36310",_"ESB_MQM_36650_36745")_
x_("ECN_ESB_36240_36310",_"ESB_BAL_36385_36475")_
x_("ECN_ESB_36240_36310",_"ESB_GNY_36940_37015")_
x_("ECN_ESB_36240_36310",_"ESB_ECN_37185_37255")_
x_("ECN_ESB_36240_36310",_"ESB_YEI_37195_37255")_
x_("ECN_ESB_36240_36310",_"ESB_ADA_36960_37020")_
x_("ECN_ESB_36240_36310",_"ESB_HTY_37190_37270")_
x_("ECN_ESB_36240_36310",_"ESB_AJI_36370_36465")_
x_("ECN_ESB_36240_36310",_"ESB_ECN_36660_36730")_
x_("ECN_ESB_36240_36310",_"ESB_SAW_36720_36780")_
x_("ECN_ESB_36240_36310",_"ESB_SAW_36360_36420")_
x_("ECN_ESB_36240_36310",_"ESB_MLX_37180_37255")_
x_("ECN_ESB_36240_36310",_"ESB_VAN_36445_36540")_
x_("ECN_ESB_36240_36310",_"ESB_ERC_36690_36770")_
x_("ECN_ESB_36240_36310",_"ESB_SAW_36600_36660")_
x_("YEI_ESB_36240_36300",_"ESB_SZF_36980_37040")_
x_("YEI_ESB_36240_36300",_"ESB_TZX_36360_36440")_
x_("YEI_ESB_36240_36300",_"ESB_ADB_36810_36890")_
x_("YEI_ESB_36240_36300",_"ESB_MQM_36650_36745")_
x_("YEI_ESB_36240_36300",_"ESB_BAL_36385_36475")_
x_("YEI_ESB_36240_36300",_"ESB_GNY_36940_37015")_
x_("YEI_ESB_36240_36300",_"ESB_ECN_37185_37255")_
x_("YEI_ESB_36240_36300",_"ESB_YEI_37195_37255")_
x_("YEI_ESB_36240_36300",_"ESB_ADA_36960_37020")_
x_("YEI_ESB_36240_36300",_"ESB_HTY_37190_37270")_
x_("YEI_ESB_36240_36300",_"ESB_AJI_36370_36465")_
x_("YEI_ESB_36240_36300",_"ESB_ECN_36660_36730")_
x_("YEI_ESB_36240_36300",_"ESB_SAW_36720_36780")_
x_("YEI_ESB_36240_36300",_"ESB_SAW_36360_36420")_
x_("YEI_ESB_36240_36300",_"ESB_MLX_37180_37255")_
x_("YEI_ESB_36240_36300",_"ESB_VAN_36445_36540")_
x_("YEI_ESB_36240_36300",_"ESB_ERC_36690_36770")_
x_("YEI_ESB_36240_36300",_"ESB_SAW_36600_36660")_
x_("MLX_ESB_36240_36315",_"ESB_SZF_36980_37040")_
x_("MLX_ESB_36240_36315",_"ESB_TZX_36360_36440")_
x_("MLX_ESB_36240_36315",_"ESB_ADB_36810_36890")_
x_("MLX_ESB_36240_36315",_"ESB_MQM_36650_36745")_
x_("MLX_ESB_36240_36315",_"ESB_BAL_36385_36475")_
x_("MLX_ESB_36240_36315",_"ESB_GNY_36940_37015")_
x_("MLX_ESB_36240_36315",_"ESB_ECN_37185_37255")_
x_("MLX_ESB_36240_36315",_"ESB_YEI_37195_37255")_
x_("MLX_ESB_36240_36315",_"ESB_ADA_36960_37020")_
x_("MLX_ESB_36240_36315",_"ESB_HTY_37190_37270")_
x_("MLX_ESB_36240_36315",_"ESB_AJI_36370_36465")_
x_("MLX_ESB_36240_36315",_"ESB_ECN_36660_36730")_
x_("MLX_ESB_36240_36315",_"ESB_SAW_36720_36780")_
x_("MLX_ESB_36240_36315",_"ESB_SAW_36360_36420")_
x_("MLX_ESB_36240_36315",_"ESB_MLX_37180_37255")_
x_("MLX_ESB_36240_36315",_"ESB_VAN_36445_36540")_
x_("MLX_ESB_36240_36315",_"ESB_ERC_36690_36770")_
x_("MLX_ESB_36240_36315",_"ESB_SAW_36600_36660")_
x_("HTY_ESB_36240_36315",_"ESB_SZF_36980_37040")_
x_("HTY_ESB_36240_36315",_"ESB_TZX_36360_36440")_
x_("HTY_ESB_36240_36315",_"ESB_ADB_36810_36890")_
x_("HTY_ESB_36240_36315",_"ESB_MQM_36650_36745")_
x_("HTY_ESB_36240_36315",_"ESB_BAL_36385_36475")_
x_("HTY_ESB_36240_36315",_"ESB_GNY_36940_37015")_
x_("HTY_ESB_36240_36315",_"ESB_ECN_37185_37255")_
x_("HTY_ESB_36240_36315",_"ESB_YEI_37195_37255")_
x_("HTY_ESB_36240_36315",_"ESB_ADA_36960_37020")_
x_("HTY_ESB_36240_36315",_"ESB_HTY_37190_37270")_
x_("HTY_ESB_36240_36315",_"ESB_AJI_36370_36465")_
x_("HTY_ESB_36240_36315",_"ESB_ECN_36660_36730")_
x_("HTY_ESB_36240_36315",_"ESB_SAW_36720_36780")_
x_("HTY_ESB_36240_36315",_"ESB_SAW_36360_36420")_
x_("HTY_ESB_36240_36315",_"ESB_MLX_37180_37255")_
x_("HTY_ESB_36240_36315",_"ESB_VAN_36445_36540")_
x_("HTY_ESB_36240_36315",_"ESB_ERC_36690_36770")_
x_("HTY_ESB_36240_36315",_"ESB_SAW_36600_36660")_
x_("SAW_ESB_36300_36360",_"ESB_SZF_36980_37040")_
x_("SAW_ESB_36300_36360",_"ESB_ADB_36810_36890")_
x_("SAW_ESB_36300_36360",_"ESB_MQM_36650_36745")_
x_("SAW_ESB_36300_36360",_"ESB_SAW_37800_37860")_
x_("SAW_ESB_36300_36360",_"ESB_GNY_36940_37015")_
x_("SAW_ESB_36300_36360",_"ESB_ECN_37185_37255")_
x_("SAW_ESB_36300_36360",_"ESB_YEI_37195_37255")_
x_("SAW_ESB_36300_36360",_"ESB_ADA_36960_37020")_
x_("SAW_ESB_36300_36360",_"ESB_HTY_37190_37270")_
x_("SAW_ESB_36300_36360",_"ESB_ECN_36660_36730")_
x_("SAW_ESB_36300_36360",_"ESB_SAW_36720_36780")_
x_("SAW_ESB_36300_36360",_"ESB_MLX_37180_37255")_
x_("SAW_ESB_36300_36360",_"ESB_VAN_36445_36540")_
x_("SAW_ESB_36300_36360",_"ESB_TZX_37800_37880")_
x_("SAW_ESB_36300_36360",_"ESB_ERC_36690_36770")_
x_("SAW_ESB_36300_36360",_"ESB_SAW_36600_36660")_
x_("ADB_SAW_36335_36395",_"SAW_ESB_36480_36540")_
x_("ADB_SAW_36335_36395",_"SAW_ESB_36840_36900")_
x_("ADB_SAW_36335_36395",_"SAW_ESB_37740_37800")_
x_("ADB_SAW_36335_36395",_"SAW_KYA_36990_37060")_
x_("ADB_SAW_36335_36395",_"SAW_ASR_36975_37060")_
x_("ADB_SAW_36335_36395",_"SAW_VAS_36690_36770")_
x_("ADB_SAW_36335_36395",_"SAW_TZX_36465_36565")_
x_("ADB_SAW_36335_36395",_"SAW_ADB_37680_37740")_
x_("ADB_SAW_36335_36395",_"SAW_AYT_36705_36770")_
x_("ADB_SAW_36335_36395",_"SAW_ADB_36930_36990")_
x_("ESB_SAW_36360_36420",_"SAW_ESB_36480_36540")_
x_("ESB_SAW_36360_36420",_"SAW_ESB_36840_36900")_
x_("ESB_SAW_36360_36420",_"SAW_ESB_37740_37800")_
x_("ESB_SAW_36360_36420",_"SAW_KYA_36990_37060")_
x_("ESB_SAW_36360_36420",_"SAW_ASR_36975_37060")_
x_("ESB_SAW_36360_36420",_"SAW_VAS_36690_36770")_
x_("ESB_SAW_36360_36420",_"SAW_TZX_36465_36565")_
x_("ESB_SAW_36360_36420",_"SAW_ADB_37680_37740")_
x_("ESB_SAW_36360_36420",_"SAW_AYT_36705_36770")_
x_("ESB_SAW_36360_36420",_"SAW_ADB_36930_36990")_
x_("ESB_TZX_36360_36440",_"TZX_ESB_36475_36555")_
x_("ESB_TZX_36360_36440",_"TZX_SAW_36600_36705")_
x_("ESB_AJI_36370_36465",_"AJI_ESB_36500_36605")_
x_("ESB_BAL_36385_36475",_"BAL_ESB_36510_36605")_
x_("ESB_VAN_36445_36540",_"VAN_ESB_36575_36680")_
x_("SAW_TZX_36465_36565",_"TZX_SAW_36600_36705")_
x_("SAW_TZX_36465_36565",_"TZX_ESB_37915_37995")_
x_("TZX_ESB_36475_36555",_"ESB_SZF_36980_37040")_
x_("TZX_ESB_36475_36555",_"ESB_ADB_36810_36890")_
x_("TZX_ESB_36475_36555",_"ESB_MQM_36650_36745")_
x_("TZX_ESB_36475_36555",_"ESB_SAW_37800_37860")_
x_("TZX_ESB_36475_36555",_"ESB_GNY_36940_37015")_
x_("TZX_ESB_36475_36555",_"ESB_ECN_37185_37255")_
x_("TZX_ESB_36475_36555",_"ESB_YEI_37195_37255")_
x_("TZX_ESB_36475_36555",_"ESB_ADA_36960_37020")_
x_("TZX_ESB_36475_36555",_"ESB_HTY_37190_37270")_
x_("TZX_ESB_36475_36555",_"ESB_ECN_36660_36730")_
x_("TZX_ESB_36475_36555",_"ESB_AJI_37810_37905")_
x_("TZX_ESB_36475_36555",_"ESB_SAW_36720_36780")_
x_("TZX_ESB_36475_36555",_"ESB_VAN_37885_37980")_
x_("TZX_ESB_36475_36555",_"ESB_AYT_37980_38045")_
x_("TZX_ESB_36475_36555",_"ESB_MLX_37180_37255")_
x_("TZX_ESB_36475_36555",_"ESB_BAL_37825_37915")_
x_("TZX_ESB_36475_36555",_"ESB_TZX_37800_37880")_
x_("TZX_ESB_36475_36555",_"ESB_ERC_36690_36770")_
x_("TZX_ESB_36475_36555",_"ESB_SAW_36600_36660")_
x_("SAW_ESB_36480_36540",_"ESB_SZF_36980_37040")_
x_("SAW_ESB_36480_36540",_"ESB_ADB_36810_36890")_
x_("SAW_ESB_36480_36540",_"ESB_MQM_36650_36745")_
x_("SAW_ESB_36480_36540",_"ESB_SAW_37800_37860")_
x_("SAW_ESB_36480_36540",_"ESB_GNY_36940_37015")_
x_("SAW_ESB_36480_36540",_"ESB_ECN_37185_37255")_
x_("SAW_ESB_36480_36540",_"ESB_YEI_37195_37255")_
x_("SAW_ESB_36480_36540",_"ESB_ADA_36960_37020")_
x_("SAW_ESB_36480_36540",_"ESB_HTY_37190_37270")_
x_("SAW_ESB_36480_36540",_"ESB_ECN_36660_36730")_
x_("SAW_ESB_36480_36540",_"ESB_AJI_37810_37905")_
x_("SAW_ESB_36480_36540",_"ESB_SAW_36720_36780")_
x_("SAW_ESB_36480_36540",_"ESB_VAN_37885_37980")_
x_("SAW_ESB_36480_36540",_"ESB_AYT_37980_38045")_
x_("SAW_ESB_36480_36540",_"ESB_MLX_37180_37255")_
x_("SAW_ESB_36480_36540",_"ESB_BAL_37825_37915")_
x_("SAW_ESB_36480_36540",_"ESB_TZX_37800_37880")_
x_("SAW_ESB_36480_36540",_"ESB_ERC_36690_36770")_
x_("SAW_ESB_36480_36540",_"ESB_SAW_36600_36660")_
x_("AJI_ESB_36500_36605",_"ESB_SZF_36980_37040")_
x_("AJI_ESB_36500_36605",_"ESB_ADB_36810_36890")_
x_("AJI_ESB_36500_36605",_"ESB_MQM_36650_36745")_
x_("AJI_ESB_36500_36605",_"ESB_SAW_37800_37860")_
x_("AJI_ESB_36500_36605",_"ESB_GNY_36940_37015")_
x_("AJI_ESB_36500_36605",_"ESB_SAW_38040_38100")_
x_("AJI_ESB_36500_36605",_"ESB_ECN_37185_37255")_
x_("AJI_ESB_36500_36605",_"ESB_YEI_37195_37255")_
x_("AJI_ESB_36500_36605",_"ESB_ADA_36960_37020")_
x_("AJI_ESB_36500_36605",_"ESB_HTY_37190_37270")_
x_("AJI_ESB_36500_36605",_"ESB_ECN_36660_36730")_
x_("AJI_ESB_36500_36605",_"ESB_AJI_37810_37905")_
x_("AJI_ESB_36500_36605",_"ESB_SAW_36720_36780")_
x_("AJI_ESB_36500_36605",_"ESB_VAN_37885_37980")_
x_("AJI_ESB_36500_36605",_"ESB_AYT_37980_38045")_
x_("AJI_ESB_36500_36605",_"ESB_MLX_37180_37255")_
x_("AJI_ESB_36500_36605",_"ESB_BAL_37825_37915")_
x_("AJI_ESB_36500_36605",_"ESB_TZX_37800_37880")_
x_("AJI_ESB_36500_36605",_"ESB_ERC_36690_36770")_
x_("BAL_ESB_36510_36605",_"ESB_SZF_36980_37040")_
x_("BAL_ESB_36510_36605",_"ESB_ADB_36810_36890")_
x_("BAL_ESB_36510_36605",_"ESB_MQM_36650_36745")_
x_("BAL_ESB_36510_36605",_"ESB_SAW_37800_37860")_
x_("BAL_ESB_36510_36605",_"ESB_GNY_36940_37015")_
x_("BAL_ESB_36510_36605",_"ESB_SAW_38040_38100")_
x_("BAL_ESB_36510_36605",_"ESB_ECN_37185_37255")_
x_("BAL_ESB_36510_36605",_"ESB_YEI_37195_37255")_
x_("BAL_ESB_36510_36605",_"ESB_ADA_36960_37020")_
x_("BAL_ESB_36510_36605",_"ESB_HTY_37190_37270")_
x_("BAL_ESB_36510_36605",_"ESB_ECN_36660_36730")_
x_("BAL_ESB_36510_36605",_"ESB_AJI_37810_37905")_
x_("BAL_ESB_36510_36605",_"ESB_SAW_36720_36780")_
x_("BAL_ESB_36510_36605",_"ESB_VAN_37885_37980")_
x_("BAL_ESB_36510_36605",_"ESB_AYT_37980_38045")_
x_("BAL_ESB_36510_36605",_"ESB_MLX_37180_37255")_
x_("BAL_ESB_36510_36605",_"ESB_BAL_37825_37915")_
x_("BAL_ESB_36510_36605",_"ESB_TZX_37800_37880")_
x_("BAL_ESB_36510_36605",_"ESB_ERC_36690_36770")_
x_("VAN_ESB_36575_36680",_"ESB_SZF_36980_37040")_
x_("VAN_ESB_36575_36680",_"ESB_ADB_36810_36890")_
x_("VAN_ESB_36575_36680",_"ESB_SAW_37800_37860")_
x_("VAN_ESB_36575_36680",_"ESB_ECN_38100_38170")_
x_("VAN_ESB_36575_36680",_"ESB_GNY_36940_37015")_
x_("VAN_ESB_36575_36680",_"ESB_SAW_38040_38100")_
x_("VAN_ESB_36575_36680",_"ESB_ECN_37185_37255")_
x_("VAN_ESB_36575_36680",_"ESB_YEI_37195_37255")_
x_("VAN_ESB_36575_36680",_"ESB_ADA_36960_37020")_
x_("VAN_ESB_36575_36680",_"ESB_HTY_37190_37270")_
x_("VAN_ESB_36575_36680",_"ESB_AJI_37810_37905")_
x_("VAN_ESB_36575_36680",_"ESB_SAW_36720_36780")_
x_("VAN_ESB_36575_36680",_"ESB_VAN_37885_37980")_
x_("VAN_ESB_36575_36680",_"ESB_MQM_38090_38185")_
x_("VAN_ESB_36575_36680",_"ESB_AYT_37980_38045")_
x_("VAN_ESB_36575_36680",_"ESB_MLX_37180_37255")_
x_("VAN_ESB_36575_36680",_"ESB_BAL_37825_37915")_
x_("VAN_ESB_36575_36680",_"ESB_TZX_37800_37880")_
x_("ESB_SAW_36600_36660",_"SAW_ESB_36840_36900")_
x_("ESB_SAW_36600_36660",_"SAW_ESB_37740_37800")_
x_("ESB_SAW_36600_36660",_"SAW_KYA_36990_37060")_
x_("ESB_SAW_36600_36660",_"SAW_ASR_36975_37060")_
x_("ESB_SAW_36600_36660",_"SAW_ESB_37920_37980")_
x_("ESB_SAW_36600_36660",_"SAW_ADB_37680_37740")_
x_("ESB_SAW_36600_36660",_"SAW_AYT_36705_36770")_
x_("ESB_SAW_36600_36660",_"SAW_TZX_37905_38005")_
x_("ESB_SAW_36600_36660",_"SAW_ADB_36930_36990")_
x_("TZX_SAW_36600_36705",_"SAW_VAS_38130_38210")_
x_("TZX_SAW_36600_36705",_"SAW_AYT_38145_38210")_
x_("TZX_SAW_36600_36705",_"SAW_ESB_36840_36900")_
x_("TZX_SAW_36600_36705",_"SAW_ESB_37740_37800")_
x_("TZX_SAW_36600_36705",_"SAW_KYA_36990_37060")_
x_("TZX_SAW_36600_36705",_"SAW_ASR_36975_37060")_
x_("TZX_SAW_36600_36705",_"SAW_ESB_37920_37980")_
x_("TZX_SAW_36600_36705",_"SAW_ADB_37680_37740")_
x_("TZX_SAW_36600_36705",_"SAW_TZX_37905_38005")_
x_("TZX_SAW_36600_36705",_"SAW_ADB_36930_36990")_
x_("ESB_MQM_36650_36745",_"MQM_ESB_36780_36875")_
x_("ESB_ECN_36660_36730",_"ECN_ESB_37055_37125")_
x_("ESB_ECN_36660_36730",_"ECN_HTY_36840_36905")_
x_("ESB_ECN_36660_36730",_"ECN_ESB_37680_37750")_
x_("ESB_ERC_36690_36770",_"ERC_ESB_36805_36885")_
x_("SAW_VAS_36690_36770",_"VAS_SAW_36805_36885")_
x_("SAW_AYT_36705_36770",_"AYT_ESB_38080_38145")_
x_("SAW_AYT_36705_36770",_"AYT_SAW_36810_36875")_
x_("ESB_SAW_36720_36780",_"SAW_VAS_38130_38210")_
x_("ESB_SAW_36720_36780",_"SAW_AYT_38145_38210")_
x_("ESB_SAW_36720_36780",_"SAW_ESB_36840_36900")_
x_("ESB_SAW_36720_36780",_"SAW_ESB_37740_37800")_
x_("ESB_SAW_36720_36780",_"SAW_KYA_36990_37060")_
x_("ESB_SAW_36720_36780",_"SAW_ASR_36975_37060")_
x_("ESB_SAW_36720_36780",_"SAW_ESB_37920_37980")_
x_("ESB_SAW_36720_36780",_"SAW_ADB_37680_37740")_
x_("ESB_SAW_36720_36780",_"SAW_TZX_37905_38005")_
x_("ESB_SAW_36720_36780",_"SAW_ADB_36930_36990")_
x_("MQM_ESB_36780_36875",_"ESB_SZF_36980_37040")_
x_("MQM_ESB_36780_36875",_"ESB_ERC_38130_38210")_
x_("MQM_ESB_36780_36875",_"ESB_SAW_37800_37860")_
x_("MQM_ESB_36780_36875",_"ESB_ECN_38100_38170")_
x_("MQM_ESB_36780_36875",_"ESB_GNY_36940_37015")_
x_("MQM_ESB_36780_36875",_"ESB_SAW_38040_38100")_
x_("MQM_ESB_36780_36875",_"ESB_ECN_37185_37255")_
x_("MQM_ESB_36780_36875",_"ESB_YEI_37195_37255")_
x_("MQM_ESB_36780_36875",_"ESB_ADA_36960_37020")_
x_("MQM_ESB_36780_36875",_"ESB_HTY_37190_37270")_
x_("MQM_ESB_36780_36875",_"ESB_AJI_37810_37905")_
x_("MQM_ESB_36780_36875",_"ESB_SAW_38160_38220")_
x_("MQM_ESB_36780_36875",_"ESB_VAN_37885_37980")_
x_("MQM_ESB_36780_36875",_"ESB_MQM_38090_38185")_
x_("MQM_ESB_36780_36875",_"ESB_AYT_37980_38045")_
x_("MQM_ESB_36780_36875",_"ESB_MLX_37180_37255")_
x_("MQM_ESB_36780_36875",_"ESB_ADB_38250_38330")_
x_("MQM_ESB_36780_36875",_"ESB_BAL_37825_37915")_
x_("MQM_ESB_36780_36875",_"ESB_TZX_37800_37880")_
x_("ERC_ESB_36805_36885",_"ESB_SZF_36980_37040")_
x_("ERC_ESB_36805_36885",_"ESB_ERC_38130_38210")_
x_("ERC_ESB_36805_36885",_"ESB_SAW_37800_37860")_
x_("ERC_ESB_36805_36885",_"ESB_ECN_38100_38170")_
x_("ERC_ESB_36805_36885",_"ESB_GNY_36940_37015")_
x_("ERC_ESB_36805_36885",_"ESB_SAW_38040_38100")_
x_("ERC_ESB_36805_36885",_"ESB_ECN_37185_37255")_
x_("ERC_ESB_36805_36885",_"ESB_YEI_37195_37255")_
x_("ERC_ESB_36805_36885",_"ESB_ADA_36960_37020")_
x_("ERC_ESB_36805_36885",_"ESB_HTY_37190_37270")_
x_("ERC_ESB_36805_36885",_"ESB_AJI_37810_37905")_
x_("ERC_ESB_36805_36885",_"ESB_SAW_38160_38220")_
x_("ERC_ESB_36805_36885",_"ESB_VAN_37885_37980")_
x_("ERC_ESB_36805_36885",_"ESB_MQM_38090_38185")_
x_("ERC_ESB_36805_36885",_"ESB_AYT_37980_38045")_
x_("ERC_ESB_36805_36885",_"ESB_MLX_37180_37255")_
x_("ERC_ESB_36805_36885",_"ESB_ADB_38250_38330")_
x_("ERC_ESB_36805_36885",_"ESB_BAL_37825_37915")_
x_("ERC_ESB_36805_36885",_"ESB_TZX_37800_37880")_
x_("VAS_SAW_36805_36885",_"SAW_VAS_38130_38210")_
x_("VAS_SAW_36805_36885",_"SAW_AYT_38145_38210")_
x_("VAS_SAW_36805_36885",_"SAW_ESB_38280_38340")_
x_("VAS_SAW_36805_36885",_"SAW_ESB_37740_37800")_
x_("VAS_SAW_36805_36885",_"SAW_KYA_36990_37060")_
x_("VAS_SAW_36805_36885",_"SAW_ASR_36975_37060")_
x_("VAS_SAW_36805_36885",_"SAW_ESB_37920_37980")_
x_("VAS_SAW_36805_36885",_"SAW_ADB_37680_37740")_
x_("VAS_SAW_36805_36885",_"SAW_TZX_37905_38005")_
x_("VAS_SAW_36805_36885",_"SAW_ADB_36930_36990")_
x_("ESB_ADB_36810_36890",_"ADB_SAW_37775_37835")_
x_("ESB_ADB_36810_36890",_"ADB_ESB_36925_37000")_
x_("ESB_ADB_36810_36890",_"ADB_SAW_37025_37085")_
x_("AYT_SAW_36810_36875",_"SAW_VAS_38130_38210")_
x_("AYT_SAW_36810_36875",_"SAW_AYT_38145_38210")_
x_("AYT_SAW_36810_36875",_"SAW_ESB_38280_38340")_
x_("AYT_SAW_36810_36875",_"SAW_ESB_37740_37800")_
x_("AYT_SAW_36810_36875",_"SAW_KYA_36990_37060")_
x_("AYT_SAW_36810_36875",_"SAW_ASR_36975_37060")_
x_("AYT_SAW_36810_36875",_"SAW_ESB_37920_37980")_
x_("AYT_SAW_36810_36875",_"SAW_ADB_37680_37740")_
x_("AYT_SAW_36810_36875",_"SAW_TZX_37905_38005")_
x_("AYT_SAW_36810_36875",_"SAW_ADB_36930_36990")_
x_("SAW_ESB_36840_36900",_"ESB_SZF_36980_37040")_
x_("SAW_ESB_36840_36900",_"ESB_ERC_38130_38210")_
x_("SAW_ESB_36840_36900",_"ESB_SAW_37800_37860")_
x_("SAW_ESB_36840_36900",_"ESB_ECN_38100_38170")_
x_("SAW_ESB_36840_36900",_"ESB_GNY_36940_37015")_
x_("SAW_ESB_36840_36900",_"ESB_SAW_38040_38100")_
x_("SAW_ESB_36840_36900",_"ESB_ECN_37185_37255")_
x_("SAW_ESB_36840_36900",_"ESB_YEI_37195_37255")_
x_("SAW_ESB_36840_36900",_"ESB_ADA_36960_37020")_
x_("SAW_ESB_36840_36900",_"ESB_HTY_37190_37270")_
x_("SAW_ESB_36840_36900",_"ESB_AJI_37810_37905")_
x_("SAW_ESB_36840_36900",_"ESB_SAW_38160_38220")_
x_("SAW_ESB_36840_36900",_"ESB_VAN_37885_37980")_
x_("SAW_ESB_36840_36900",_"ESB_MQM_38090_38185")_
x_("SAW_ESB_36840_36900",_"ESB_AYT_37980_38045")_
x_("SAW_ESB_36840_36900",_"ESB_MLX_37180_37255")_
x_("SAW_ESB_36840_36900",_"ESB_ADB_38250_38330")_
x_("SAW_ESB_36840_36900",_"ESB_BAL_37825_37915")_
x_("SAW_ESB_36840_36900",_"ESB_TZX_37800_37880")_
x_("ECN_HTY_36840_36905",_"HTY_ECN_36945_37010")_
x_("ECN_HTY_36840_36905",_"HTY_ESB_37680_37755")_
x_("ADB_ESB_36925_37000",_"ESB_ERC_38130_38210")_
x_("ADB_ESB_36925_37000",_"ESB_SAW_37800_37860")_
x_("ADB_ESB_36925_37000",_"ESB_SZF_38420_38480")_
x_("ADB_ESB_36925_37000",_"ESB_ECN_38100_38170")_
x_("ADB_ESB_36925_37000",_"ESB_SAW_38040_38100")_
x_("ADB_ESB_36925_37000",_"ESB_ECN_37185_37255")_
x_("ADB_ESB_36925_37000",_"ESB_YEI_37195_37255")_
x_("ADB_ESB_36925_37000",_"ESB_HTY_37190_37270")_
x_("ADB_ESB_36925_37000",_"ESB_AJI_37810_37905")_
x_("ADB_ESB_36925_37000",_"ESB_SAW_38160_38220")_
x_("ADB_ESB_36925_37000",_"ESB_VAN_37885_37980")_
x_("ADB_ESB_36925_37000",_"ESB_MQM_38090_38185")_
x_("ADB_ESB_36925_37000",_"ESB_AYT_37980_38045")_
x_("ADB_ESB_36925_37000",_"ESB_GNY_38380_38455")_
x_("ADB_ESB_36925_37000",_"ESB_MLX_37180_37255")_
x_("ADB_ESB_36925_37000",_"ESB_ADB_38250_38330")_
x_("ADB_ESB_36925_37000",_"ESB_BAL_37825_37915")_
x_("ADB_ESB_36925_37000",_"ESB_ADA_38400_38460")_
x_("ADB_ESB_36925_37000",_"ESB_TZX_37800_37880")_
x_("SAW_ADB_36930_36990",_"ADB_ESB_38365_38440")_
x_("SAW_ADB_36930_36990",_"ADB_SAW_37775_37835")_
x_("SAW_ADB_36930_36990",_"ADB_SAW_37025_37085")_
x_("ESB_GNY_36940_37015",_"GNY_ESB_37050_37130")_
x_("HTY_ECN_36945_37010",_"ECN_HTY_38280_38345")_
x_("HTY_ECN_36945_37010",_"ECN_ESB_37055_37125")_
x_("HTY_ECN_36945_37010",_"ECN_ESB_37680_37750")_
x_("ESB_ADA_36960_37020",_"ADA_ESB_37060_37125")_
x_("SAW_ASR_36975_37060",_"ASR_SAW_37095_37185")_
x_("ESB_SZF_36980_37040",_"SZF_ESB_37075_37135")_
x_("SAW_KYA_36990_37060",_"KYA_SAW_37095_37165")_
x_("ADB_SAW_37025_37085",_"SAW_VAS_38130_38210")_
x_("ADB_SAW_37025_37085",_"SAW_AYT_38145_38210")_
x_("ADB_SAW_37025_37085",_"SAW_ESB_38280_38340")_
x_("ADB_SAW_37025_37085",_"SAW_ASR_38415_38500")_
x_("ADB_SAW_37025_37085",_"SAW_ESB_37740_37800")_
x_("ADB_SAW_37025_37085",_"SAW_ESB_37920_37980")_
x_("ADB_SAW_37025_37085",_"SAW_ADB_37680_37740")_
x_("ADB_SAW_37025_37085",_"SAW_ADB_38370_38430")_
x_("ADB_SAW_37025_37085",_"SAW_TZX_37905_38005")_
x_("ADB_SAW_37025_37085",_"SAW_KYA_38430_38500")_
x_("GNY_ESB_37050_37130",_"ESB_ERC_38130_38210")_
x_("GNY_ESB_37050_37130",_"ESB_SAW_37800_37860")_
x_("GNY_ESB_37050_37130",_"ESB_SZF_38420_38480")_
x_("GNY_ESB_37050_37130",_"ESB_ECN_38100_38170")_
x_("GNY_ESB_37050_37130",_"ESB_SAW_38040_38100")_
x_("GNY_ESB_37050_37130",_"ESB_ECN_37185_37255")_
x_("GNY_ESB_37050_37130",_"ESB_YEI_37195_37255")_
x_("GNY_ESB_37050_37130",_"ESB_HTY_37190_37270")_
x_("GNY_ESB_37050_37130",_"ESB_AJI_37810_37905")_
x_("GNY_ESB_37050_37130",_"ESB_SAW_38160_38220")_
x_("GNY_ESB_37050_37130",_"ESB_VAN_37885_37980")_
x_("GNY_ESB_37050_37130",_"ESB_MQM_38090_38185")_
x_("GNY_ESB_37050_37130",_"ESB_AYT_37980_38045")_
x_("GNY_ESB_37050_37130",_"ESB_GNY_38380_38455")_
x_("GNY_ESB_37050_37130",_"ESB_MLX_37180_37255")_
x_("GNY_ESB_37050_37130",_"ESB_ADB_38250_38330")_
x_("GNY_ESB_37050_37130",_"ESB_BAL_37825_37915")_
x_("GNY_ESB_37050_37130",_"ESB_ADA_38400_38460")_
x_("GNY_ESB_37050_37130",_"ESB_TZX_37800_37880")_
x_("ECN_ESB_37055_37125",_"ESB_ERC_38130_38210")_
x_("ECN_ESB_37055_37125",_"ESB_SAW_37800_37860")_
x_("ECN_ESB_37055_37125",_"ESB_SZF_38420_38480")_
x_("ECN_ESB_37055_37125",_"ESB_ECN_38100_38170")_
x_("ECN_ESB_37055_37125",_"ESB_SAW_38040_38100")_
x_("ECN_ESB_37055_37125",_"ESB_ECN_37185_37255")_
x_("ECN_ESB_37055_37125",_"ESB_YEI_37195_37255")_
x_("ECN_ESB_37055_37125",_"ESB_HTY_37190_37270")_
x_("ECN_ESB_37055_37125",_"ESB_AJI_37810_37905")_
x_("ECN_ESB_37055_37125",_"ESB_SAW_38160_38220")_
x_("ECN_ESB_37055_37125",_"ESB_VAN_37885_37980")_
x_("ECN_ESB_37055_37125",_"ESB_MQM_38090_38185")_
x_("ECN_ESB_37055_37125",_"ESB_AYT_37980_38045")_
x_("ECN_ESB_37055_37125",_"ESB_GNY_38380_38455")_
x_("ECN_ESB_37055_37125",_"ESB_MLX_37180_37255")_
x_("ECN_ESB_37055_37125",_"ESB_ADB_38250_38330")_
x_("ECN_ESB_37055_37125",_"ESB_BAL_37825_37915")_
x_("ECN_ESB_37055_37125",_"ESB_ADA_38400_38460")_
x_("ECN_ESB_37055_37125",_"ESB_TZX_37800_37880")_
x_("ADA_ESB_37060_37125",_"ESB_ERC_38130_38210")_
x_("ADA_ESB_37060_37125",_"ESB_SAW_37800_37860")_
x_("ADA_ESB_37060_37125",_"ESB_SZF_38420_38480")_
x_("ADA_ESB_37060_37125",_"ESB_ECN_38100_38170")_
x_("ADA_ESB_37060_37125",_"ESB_SAW_38040_38100")_
x_("ADA_ESB_37060_37125",_"ESB_ECN_37185_37255")_
x_("ADA_ESB_37060_37125",_"ESB_YEI_37195_37255")_
x_("ADA_ESB_37060_37125",_"ESB_HTY_37190_37270")_
x_("ADA_ESB_37060_37125",_"ESB_AJI_37810_37905")_
x_("ADA_ESB_37060_37125",_"ESB_SAW_38160_38220")_
x_("ADA_ESB_37060_37125",_"ESB_VAN_37885_37980")_
x_("ADA_ESB_37060_37125",_"ESB_MQM_38090_38185")_
x_("ADA_ESB_37060_37125",_"ESB_AYT_37980_38045")_
x_("ADA_ESB_37060_37125",_"ESB_GNY_38380_38455")_
x_("ADA_ESB_37060_37125",_"ESB_MLX_37180_37255")_
x_("ADA_ESB_37060_37125",_"ESB_ADB_38250_38330")_
x_("ADA_ESB_37060_37125",_"ESB_BAL_37825_37915")_
x_("ADA_ESB_37060_37125",_"ESB_ADA_38400_38460")_
x_("ADA_ESB_37060_37125",_"ESB_TZX_37800_37880")_
x_("SZF_ESB_37075_37135",_"ESB_ERC_38130_38210")_
x_("SZF_ESB_37075_37135",_"ESB_SAW_37800_37860")_
x_("SZF_ESB_37075_37135",_"ESB_SZF_38420_38480")_
x_("SZF_ESB_37075_37135",_"ESB_ECN_38100_38170")_
x_("SZF_ESB_37075_37135",_"ESB_SAW_38040_38100")_
x_("SZF_ESB_37075_37135",_"ESB_ECN_37185_37255")_
x_("SZF_ESB_37075_37135",_"ESB_YEI_37195_37255")_
x_("SZF_ESB_37075_37135",_"ESB_HTY_37190_37270")_
x_("SZF_ESB_37075_37135",_"ESB_AJI_37810_37905")_
x_("SZF_ESB_37075_37135",_"ESB_SAW_38160_38220")_
x_("SZF_ESB_37075_37135",_"ESB_VAN_37885_37980")_
x_("SZF_ESB_37075_37135",_"ESB_MQM_38090_38185")_
x_("SZF_ESB_37075_37135",_"ESB_AYT_37980_38045")_
x_("SZF_ESB_37075_37135",_"ESB_GNY_38380_38455")_
x_("SZF_ESB_37075_37135",_"ESB_MLX_37180_37255")_
x_("SZF_ESB_37075_37135",_"ESB_ADB_38250_38330")_
x_("SZF_ESB_37075_37135",_"ESB_BAL_37825_37915")_
x_("SZF_ESB_37075_37135",_"ESB_ADA_38400_38460")_
x_("SZF_ESB_37075_37135",_"ESB_TZX_37800_37880")_
x_("ASR_SAW_37095_37185",_"SAW_VAS_38130_38210")_
x_("ASR_SAW_37095_37185",_"SAW_AYT_38145_38210")_
x_("ASR_SAW_37095_37185",_"SAW_ESB_38280_38340")_
x_("ASR_SAW_37095_37185",_"SAW_ASR_38415_38500")_
x_("ASR_SAW_37095_37185",_"SAW_ESB_37740_37800")_
x_("ASR_SAW_37095_37185",_"SAW_ESB_37920_37980")_
x_("ASR_SAW_37095_37185",_"SAW_ADB_37680_37740")_
x_("ASR_SAW_37095_37185",_"SAW_ADB_38370_38430")_
x_("ASR_SAW_37095_37185",_"SAW_TZX_37905_38005")_
x_("ASR_SAW_37095_37185",_"SAW_KYA_38430_38500")_
x_("KYA_SAW_37095_37165",_"SAW_VAS_38130_38210")_
x_("KYA_SAW_37095_37165",_"SAW_AYT_38145_38210")_
x_("KYA_SAW_37095_37165",_"SAW_ESB_38280_38340")_
x_("KYA_SAW_37095_37165",_"SAW_ASR_38415_38500")_
x_("KYA_SAW_37095_37165",_"SAW_ESB_37740_37800")_
x_("KYA_SAW_37095_37165",_"SAW_ESB_37920_37980")_
x_("KYA_SAW_37095_37165",_"SAW_ADB_37680_37740")_
x_("KYA_SAW_37095_37165",_"SAW_ADB_38370_38430")_
x_("KYA_SAW_37095_37165",_"SAW_TZX_37905_38005")_
x_("KYA_SAW_37095_37165",_"SAW_KYA_38430_38500")_
x_("ESB_MLX_37180_37255",_"MLX_ESB_37680_37755")_
x_("ESB_ECN_37185_37255",_"ECN_HTY_38280_38345")_
x_("ESB_ECN_37185_37255",_"ECN_ESB_37680_37750")_
x_("ESB_ECN_37185_37255",_"ECN_ESB_38495_38565")_
x_("ESB_HTY_37190_37270",_"HTY_ECN_38385_38450")_
x_("ESB_HTY_37190_37270",_"HTY_ESB_37680_37755")_
x_("ESB_YEI_37195_37255",_"YEI_ESB_37680_37740")_
x_("SAW_ADB_37680_37740",_"ADB_ESB_38365_38440")_
x_("SAW_ADB_37680_37740",_"ADB_SAW_37775_37835")_
x_("SAW_ADB_37680_37740",_"ADB_SAW_38465_38525")_
x_("ECN_ESB_37680_37750",_"ESB_ERC_38130_38210")_
x_("ECN_ESB_37680_37750",_"ESB_SAW_37800_37860")_
x_("ECN_ESB_37680_37750",_"ESB_SZF_38420_38480")_
x_("ECN_ESB_37680_37750",_"ESB_ECN_38100_38170")_
x_("ECN_ESB_37680_37750",_"ESB_ECN_38625_38695")_
x_("ECN_ESB_37680_37750",_"ESB_SAW_38040_38100")_
x_("ECN_ESB_37680_37750",_"ESB_AJI_37810_37905")_
x_("ECN_ESB_37680_37750",_"ESB_MLX_38620_38695")_
x_("ECN_ESB_37680_37750",_"ESB_SAW_38160_38220")_
x_("ECN_ESB_37680_37750",_"ESB_HTY_38630_38710")_
x_("ECN_ESB_37680_37750",_"ESB_VAN_37885_37980")_
x_("ECN_ESB_37680_37750",_"ESB_MQM_38090_38185")_
x_("ECN_ESB_37680_37750",_"ESB_AYT_37980_38045")_
x_("ECN_ESB_37680_37750",_"ESB_GNY_38380_38455")_
x_("ECN_ESB_37680_37750",_"ESB_YEI_38635_38695")_
x_("ECN_ESB_37680_37750",_"ESB_ADB_38250_38330")_
x_("ECN_ESB_37680_37750",_"ESB_BAL_37825_37915")_
x_("ECN_ESB_37680_37750",_"ESB_ADA_38400_38460")_
x_("ECN_ESB_37680_37750",_"ESB_TZX_37800_37880")_
x_("YEI_ESB_37680_37740",_"ESB_ERC_38130_38210")_
x_("YEI_ESB_37680_37740",_"ESB_SAW_37800_37860")_
x_("YEI_ESB_37680_37740",_"ESB_SZF_38420_38480")_
x_("YEI_ESB_37680_37740",_"ESB_ECN_38100_38170")_
x_("YEI_ESB_37680_37740",_"ESB_ECN_38625_38695")_
x_("YEI_ESB_37680_37740",_"ESB_SAW_38040_38100")_
x_("YEI_ESB_37680_37740",_"ESB_AJI_37810_37905")_
x_("YEI_ESB_37680_37740",_"ESB_MLX_38620_38695")_
x_("YEI_ESB_37680_37740",_"ESB_SAW_38160_38220")_
x_("YEI_ESB_37680_37740",_"ESB_HTY_38630_38710")_
x_("YEI_ESB_37680_37740",_"ESB_VAN_37885_37980")_
x_("YEI_ESB_37680_37740",_"ESB_MQM_38090_38185")_
x_("YEI_ESB_37680_37740",_"ESB_AYT_37980_38045")_
x_("YEI_ESB_37680_37740",_"ESB_GNY_38380_38455")_
x_("YEI_ESB_37680_37740",_"ESB_YEI_38635_38695")_
x_("YEI_ESB_37680_37740",_"ESB_ADB_38250_38330")_
x_("YEI_ESB_37680_37740",_"ESB_BAL_37825_37915")_
x_("YEI_ESB_37680_37740",_"ESB_ADA_38400_38460")_
x_("YEI_ESB_37680_37740",_"ESB_TZX_37800_37880")_
x_("MLX_ESB_37680_37755",_"ESB_ERC_38130_38210")_
x_("MLX_ESB_37680_37755",_"ESB_SAW_37800_37860")_
x_("MLX_ESB_37680_37755",_"ESB_SZF_38420_38480")_
x_("MLX_ESB_37680_37755",_"ESB_ECN_38100_38170")_
x_("MLX_ESB_37680_37755",_"ESB_ECN_38625_38695")_
x_("MLX_ESB_37680_37755",_"ESB_SAW_38040_38100")_
x_("MLX_ESB_37680_37755",_"ESB_AJI_37810_37905")_
x_("MLX_ESB_37680_37755",_"ESB_MLX_38620_38695")_
x_("MLX_ESB_37680_37755",_"ESB_SAW_38160_38220")_
x_("MLX_ESB_37680_37755",_"ESB_HTY_38630_38710")_
x_("MLX_ESB_37680_37755",_"ESB_VAN_37885_37980")_
x_("MLX_ESB_37680_37755",_"ESB_MQM_38090_38185")_
x_("MLX_ESB_37680_37755",_"ESB_AYT_37980_38045")_
x_("MLX_ESB_37680_37755",_"ESB_GNY_38380_38455")_
x_("MLX_ESB_37680_37755",_"ESB_YEI_38635_38695")_
x_("MLX_ESB_37680_37755",_"ESB_ADB_38250_38330")_
x_("MLX_ESB_37680_37755",_"ESB_BAL_37825_37915")_
x_("MLX_ESB_37680_37755",_"ESB_ADA_38400_38460")_
x_("MLX_ESB_37680_37755",_"ESB_TZX_37800_37880")_
x_("HTY_ESB_37680_37755",_"ESB_ERC_38130_38210")_
x_("HTY_ESB_37680_37755",_"ESB_SAW_37800_37860")_
x_("HTY_ESB_37680_37755",_"ESB_SZF_38420_38480")_
x_("HTY_ESB_37680_37755",_"ESB_ECN_38100_38170")_
x_("HTY_ESB_37680_37755",_"ESB_ECN_38625_38695")_
x_("HTY_ESB_37680_37755",_"ESB_SAW_38040_38100")_
x_("HTY_ESB_37680_37755",_"ESB_AJI_37810_37905")_
x_("HTY_ESB_37680_37755",_"ESB_MLX_38620_38695")_
x_("HTY_ESB_37680_37755",_"ESB_SAW_38160_38220")_
x_("HTY_ESB_37680_37755",_"ESB_HTY_38630_38710")_
x_("HTY_ESB_37680_37755",_"ESB_VAN_37885_37980")_
x_("HTY_ESB_37680_37755",_"ESB_MQM_38090_38185")_
x_("HTY_ESB_37680_37755",_"ESB_AYT_37980_38045")_
x_("HTY_ESB_37680_37755",_"ESB_GNY_38380_38455")_
x_("HTY_ESB_37680_37755",_"ESB_YEI_38635_38695")_
x_("HTY_ESB_37680_37755",_"ESB_ADB_38250_38330")_
x_("HTY_ESB_37680_37755",_"ESB_BAL_37825_37915")_
x_("HTY_ESB_37680_37755",_"ESB_ADA_38400_38460")_
x_("HTY_ESB_37680_37755",_"ESB_TZX_37800_37880")_
x_("SAW_ESB_37740_37800",_"ESB_ERC_38130_38210")_
x_("SAW_ESB_37740_37800",_"ESB_SZF_38420_38480")_
x_("SAW_ESB_37740_37800",_"ESB_ECN_38100_38170")_
x_("SAW_ESB_37740_37800",_"ESB_ECN_38625_38695")_
x_("SAW_ESB_37740_37800",_"ESB_SAW_38040_38100")_
x_("SAW_ESB_37740_37800",_"ESB_MLX_38620_38695")_
x_("SAW_ESB_37740_37800",_"ESB_SAW_38160_38220")_
x_("SAW_ESB_37740_37800",_"ESB_TZX_39240_39320")_
x_("SAW_ESB_37740_37800",_"ESB_HTY_38630_38710")_
x_("SAW_ESB_37740_37800",_"ESB_VAN_37885_37980")_
x_("SAW_ESB_37740_37800",_"ESB_MQM_38090_38185")_
x_("SAW_ESB_37740_37800",_"ESB_AYT_37980_38045")_
x_("SAW_ESB_37740_37800",_"ESB_GNY_38380_38455")_
x_("SAW_ESB_37740_37800",_"ESB_YEI_38635_38695")_
x_("SAW_ESB_37740_37800",_"ESB_ADB_38250_38330")_
x_("SAW_ESB_37740_37800",_"ESB_ADA_38400_38460")_
x_("ADB_SAW_37775_37835",_"SAW_VAS_38130_38210")_
x_("ADB_SAW_37775_37835",_"SAW_ADB_39120_39180")_
x_("ADB_SAW_37775_37835",_"SAW_AYT_38145_38210")_
x_("ADB_SAW_37775_37835",_"SAW_ESB_38280_38340")_
x_("ADB_SAW_37775_37835",_"SAW_ASR_38415_38500")_
x_("ADB_SAW_37775_37835",_"SAW_ESB_37920_37980")_
x_("ADB_SAW_37775_37835",_"SAW_ADB_38370_38430")_
x_("ADB_SAW_37775_37835",_"SAW_TZX_37905_38005")_
x_("ADB_SAW_37775_37835",_"SAW_KYA_38430_38500")_
x_("ESB_SAW_37800_37860",_"SAW_VAS_38130_38210")_
x_("ESB_SAW_37800_37860",_"SAW_ADB_39120_39180")_
x_("ESB_SAW_37800_37860",_"SAW_AYT_38145_38210")_
x_("ESB_SAW_37800_37860",_"SAW_ESB_38280_38340")_
x_("ESB_SAW_37800_37860",_"SAW_ASR_38415_38500")_
x_("ESB_SAW_37800_37860",_"SAW_ESB_37920_37980")_
x_("ESB_SAW_37800_37860",_"SAW_ADB_38370_38430")_
x_("ESB_SAW_37800_37860",_"SAW_TZX_37905_38005")_
x_("ESB_SAW_37800_37860",_"SAW_KYA_38430_38500")_
x_("ESB_TZX_37800_37880",_"TZX_SAW_38040_38145")_
x_("ESB_TZX_37800_37880",_"TZX_ESB_37915_37995")_
x_("ESB_AJI_37810_37905",_"AJI_ESB_37940_38045")_
x_("ESB_BAL_37825_37915",_"BAL_ESB_37950_38045")_
x_("ESB_VAN_37885_37980",_"VAN_ESB_38015_38120")_
x_("SAW_TZX_37905_38005",_"TZX_SAW_38040_38145")_
x_("SAW_TZX_37905_38005",_"TZX_ESB_39355_39435")_
x_("TZX_ESB_37915_37995",_"ESB_ERC_38130_38210")_
x_("TZX_ESB_37915_37995",_"ESB_SZF_38420_38480")_
x_("TZX_ESB_37915_37995",_"ESB_ECN_38100_38170")_
x_("TZX_ESB_37915_37995",_"ESB_ECN_38625_38695")_
x_("TZX_ESB_37915_37995",_"ESB_SAW_38040_38100")_
x_("TZX_ESB_37915_37995",_"ESB_MLX_38620_38695")_
x_("TZX_ESB_37915_37995",_"ESB_SAW_38160_38220")_
x_("TZX_ESB_37915_37995",_"ESB_TZX_39240_39320")_
x_("TZX_ESB_37915_37995",_"ESB_HTY_38630_38710")_
x_("TZX_ESB_37915_37995",_"ESB_MQM_38090_38185")_
x_("TZX_ESB_37915_37995",_"ESB_GNY_38380_38455")_
x_("TZX_ESB_37915_37995",_"ESB_YEI_38635_38695")_
x_("TZX_ESB_37915_37995",_"ESB_BAL_39265_39355")_
x_("TZX_ESB_37915_37995",_"ESB_ADB_38250_38330")_
x_("TZX_ESB_37915_37995",_"ESB_VAN_39325_39420")_
x_("TZX_ESB_37915_37995",_"ESB_ADA_38400_38460")_
x_("SAW_ESB_37920_37980",_"ESB_ERC_38130_38210")_
x_("SAW_ESB_37920_37980",_"ESB_SZF_38420_38480")_
x_("SAW_ESB_37920_37980",_"ESB_ECN_38100_38170")_
x_("SAW_ESB_37920_37980",_"ESB_ECN_38625_38695")_
x_("SAW_ESB_37920_37980",_"ESB_SAW_38040_38100")_
x_("SAW_ESB_37920_37980",_"ESB_MLX_38620_38695")_
x_("SAW_ESB_37920_37980",_"ESB_SAW_38160_38220")_
x_("SAW_ESB_37920_37980",_"ESB_TZX_39240_39320")_
x_("SAW_ESB_37920_37980",_"ESB_HTY_38630_38710")_
x_("SAW_ESB_37920_37980",_"ESB_MQM_38090_38185")_
x_("SAW_ESB_37920_37980",_"ESB_GNY_38380_38455")_
x_("SAW_ESB_37920_37980",_"ESB_YEI_38635_38695")_
x_("SAW_ESB_37920_37980",_"ESB_BAL_39265_39355")_
x_("SAW_ESB_37920_37980",_"ESB_ADB_38250_38330")_
x_("SAW_ESB_37920_37980",_"ESB_VAN_39325_39420")_
x_("SAW_ESB_37920_37980",_"ESB_ADA_38400_38460")_
x_("AJI_ESB_37940_38045",_"ESB_SAW_39480_39540")_
x_("AJI_ESB_37940_38045",_"ESB_ERC_38130_38210")_
x_("AJI_ESB_37940_38045",_"ESB_SZF_38420_38480")_
x_("AJI_ESB_37940_38045",_"ESB_ECN_38100_38170")_
x_("AJI_ESB_37940_38045",_"ESB_ECN_38625_38695")_
x_("AJI_ESB_37940_38045",_"ESB_MLX_38620_38695")_
x_("AJI_ESB_37940_38045",_"ESB_SAW_38160_38220")_
x_("AJI_ESB_37940_38045",_"ESB_TZX_39240_39320")_
x_("AJI_ESB_37940_38045",_"ESB_HTY_38630_38710")_
x_("AJI_ESB_37940_38045",_"ESB_MQM_38090_38185")_
x_("AJI_ESB_37940_38045",_"ESB_GNY_38380_38455")_
x_("AJI_ESB_37940_38045",_"ESB_YEI_38635_38695")_
x_("AJI_ESB_37940_38045",_"ESB_BAL_39265_39355")_
x_("AJI_ESB_37940_38045",_"ESB_ADB_38250_38330")_
x_("AJI_ESB_37940_38045",_"ESB_VAN_39325_39420")_
x_("AJI_ESB_37940_38045",_"ESB_ADA_38400_38460")_
x_("BAL_ESB_37950_38045",_"ESB_SAW_39480_39540")_
x_("BAL_ESB_37950_38045",_"ESB_ERC_38130_38210")_
x_("BAL_ESB_37950_38045",_"ESB_SZF_38420_38480")_
x_("BAL_ESB_37950_38045",_"ESB_ECN_38100_38170")_
x_("BAL_ESB_37950_38045",_"ESB_ECN_38625_38695")_
x_("BAL_ESB_37950_38045",_"ESB_MLX_38620_38695")_
x_("BAL_ESB_37950_38045",_"ESB_SAW_38160_38220")_
x_("BAL_ESB_37950_38045",_"ESB_TZX_39240_39320")_
x_("BAL_ESB_37950_38045",_"ESB_HTY_38630_38710")_
x_("BAL_ESB_37950_38045",_"ESB_MQM_38090_38185")_
x_("BAL_ESB_37950_38045",_"ESB_GNY_38380_38455")_
x_("BAL_ESB_37950_38045",_"ESB_YEI_38635_38695")_
x_("BAL_ESB_37950_38045",_"ESB_BAL_39265_39355")_
x_("BAL_ESB_37950_38045",_"ESB_ADB_38250_38330")_
x_("BAL_ESB_37950_38045",_"ESB_VAN_39325_39420")_
x_("BAL_ESB_37950_38045",_"ESB_ADA_38400_38460")_
x_("ESB_AYT_37980_38045",_"AYT_ESB_38080_38145")_
x_("ESB_AYT_37980_38045",_"AYT_SAW_38250_38315")_
x_("VAN_ESB_38015_38120",_"ESB_SAW_39480_39540")_
x_("VAN_ESB_38015_38120",_"ESB_SZF_38420_38480")_
x_("VAN_ESB_38015_38120",_"ESB_ECN_38625_38695")_
x_("VAN_ESB_38015_38120",_"ESB_MLX_38620_38695")_
x_("VAN_ESB_38015_38120",_"ESB_SAW_38160_38220")_
x_("VAN_ESB_38015_38120",_"ESB_MQM_39530_39625")_
x_("VAN_ESB_38015_38120",_"ESB_TZX_39240_39320")_
x_("VAN_ESB_38015_38120",_"ESB_HTY_38630_38710")_
x_("VAN_ESB_38015_38120",_"ESB_GNY_38380_38455")_
x_("VAN_ESB_38015_38120",_"ESB_YEI_38635_38695")_
x_("VAN_ESB_38015_38120",_"ESB_BAL_39265_39355")_
x_("VAN_ESB_38015_38120",_"ESB_EZS_39555_39630")_
x_("VAN_ESB_38015_38120",_"ESB_ADB_38250_38330")_
x_("VAN_ESB_38015_38120",_"ESB_VAN_39325_39420")_
x_("VAN_ESB_38015_38120",_"ESB_ADA_38400_38460")_
x_("TZX_SAW_38040_38145",_"SAW_ADB_39120_39180")_
x_("TZX_SAW_38040_38145",_"SAW_ESB_38280_38340")_
x_("TZX_SAW_38040_38145",_"SAW_ASR_38415_38500")_
x_("TZX_SAW_38040_38145",_"SAW_NAJ_39350_39490")_
x_("TZX_SAW_38040_38145",_"SAW_AYT_39585_39650")_
x_("TZX_SAW_38040_38145",_"SAW_ADB_38370_38430")_
x_("TZX_SAW_38040_38145",_"SAW_KYA_38430_38500")_
x_("TZX_SAW_38040_38145",_"SAW_TZX_39345_39445")_
x_("TZX_SAW_38040_38145",_"SAW_ESB_39360_39420")_
x_("ESB_SAW_38040_38100",_"SAW_ADB_39120_39180")_
x_("ESB_SAW_38040_38100",_"SAW_AYT_38145_38210")_
x_("ESB_SAW_38040_38100",_"SAW_ESB_38280_38340")_
x_("ESB_SAW_38040_38100",_"SAW_ASR_38415_38500")_
x_("ESB_SAW_38040_38100",_"SAW_NAJ_39350_39490")_
x_("ESB_SAW_38040_38100",_"SAW_ADB_38370_38430")_
x_("ESB_SAW_38040_38100",_"SAW_KYA_38430_38500")_
x_("ESB_SAW_38040_38100",_"SAW_TZX_39345_39445")_
x_("ESB_SAW_38040_38100",_"SAW_ESB_39360_39420")_
x_("AYT_ESB_38080_38145",_"ESB_SAW_39480_39540")_
x_("AYT_ESB_38080_38145",_"ESB_SZF_38420_38480")_
x_("AYT_ESB_38080_38145",_"ESB_ECN_38625_38695")_
x_("AYT_ESB_38080_38145",_"ESB_MLX_38620_38695")_
x_("AYT_ESB_38080_38145",_"ESB_MQM_39530_39625")_
x_("AYT_ESB_38080_38145",_"ESB_TZX_39240_39320")_
x_("AYT_ESB_38080_38145",_"ESB_HTY_38630_38710")_
x_("AYT_ESB_38080_38145",_"ESB_GNY_38380_38455")_
x_("AYT_ESB_38080_38145",_"ESB_YEI_38635_38695")_
x_("AYT_ESB_38080_38145",_"ESB_BAL_39265_39355")_
x_("AYT_ESB_38080_38145",_"ESB_ERC_39570_39650")_
x_("AYT_ESB_38080_38145",_"ESB_EZS_39555_39630")_
x_("AYT_ESB_38080_38145",_"ESB_ADB_38250_38330")_
x_("AYT_ESB_38080_38145",_"ESB_VAN_39325_39420")_
x_("AYT_ESB_38080_38145",_"ESB_ADA_38400_38460")_
x_("ESB_MQM_38090_38185",_"MQM_ESB_38220_38315")_
x_("ESB_ECN_38100_38170",_"ECN_HTY_38280_38345")_
x_("ESB_ECN_38100_38170",_"ECN_ESB_39120_39190")_
x_("ESB_ECN_38100_38170",_"ECN_ESB_38495_38565")_
x_("ESB_ERC_38130_38210",_"ERC_ESB_38245_38325")_
x_("SAW_VAS_38130_38210",_"VAS_SAW_38245_38325")_
x_("SAW_AYT_38145_38210",_"AYT_SAW_38250_38315")_
x_("ESB_SAW_38160_38220",_"SAW_ADB_39120_39180")_
x_("ESB_SAW_38160_38220",_"SAW_ESB_38280_38340")_
x_("ESB_SAW_38160_38220",_"SAW_ASR_38415_38500")_
x_("ESB_SAW_38160_38220",_"SAW_NAJ_39350_39490")_
x_("ESB_SAW_38160_38220",_"SAW_AYT_39585_39650")_
x_("ESB_SAW_38160_38220",_"SAW_ADB_38370_38430")_
x_("ESB_SAW_38160_38220",_"SAW_KYA_38430_38500")_
x_("ESB_SAW_38160_38220",_"SAW_TZX_39345_39445")_
x_("ESB_SAW_38160_38220",_"SAW_ESB_39360_39420")_
x_("MQM_ESB_38220_38315",_"ESB_ADB_39690_39770")_
x_("MQM_ESB_38220_38315",_"ESB_SAW_39480_39540")_
x_("MQM_ESB_38220_38315",_"ESB_SZF_38420_38480")_
x_("MQM_ESB_38220_38315",_"ESB_ECN_38625_38695")_
x_("MQM_ESB_38220_38315",_"ESB_SAW_39600_39660")_
x_("MQM_ESB_38220_38315",_"ESB_MLX_38620_38695")_
x_("MQM_ESB_38220_38315",_"ESB_MQM_39530_39625")_
x_("MQM_ESB_38220_38315",_"ESB_TZX_39240_39320")_
x_("MQM_ESB_38220_38315",_"ESB_HTY_38630_38710")_
x_("MQM_ESB_38220_38315",_"ESB_GNY_38380_38455")_
x_("MQM_ESB_38220_38315",_"ESB_YEI_38635_38695")_
x_("MQM_ESB_38220_38315",_"ESB_BAL_39265_39355")_
x_("MQM_ESB_38220_38315",_"ESB_ERC_39570_39650")_
x_("MQM_ESB_38220_38315",_"ESB_EZS_39555_39630")_
x_("MQM_ESB_38220_38315",_"ESB_VAN_39325_39420")_
x_("MQM_ESB_38220_38315",_"ESB_ADA_38400_38460")_
x_("ERC_ESB_38245_38325",_"ESB_ADB_39690_39770")_
x_("ERC_ESB_38245_38325",_"ESB_SAW_39480_39540")_
x_("ERC_ESB_38245_38325",_"ESB_SZF_38420_38480")_
x_("ERC_ESB_38245_38325",_"ESB_ECN_38625_38695")_
x_("ERC_ESB_38245_38325",_"ESB_SAW_39600_39660")_
x_("ERC_ESB_38245_38325",_"ESB_MLX_38620_38695")_
x_("ERC_ESB_38245_38325",_"ESB_MQM_39530_39625")_
x_("ERC_ESB_38245_38325",_"ESB_TZX_39240_39320")_
x_("ERC_ESB_38245_38325",_"ESB_HTY_38630_38710")_
x_("ERC_ESB_38245_38325",_"ESB_GNY_38380_38455")_
x_("ERC_ESB_38245_38325",_"ESB_YEI_38635_38695")_
x_("ERC_ESB_38245_38325",_"ESB_BAL_39265_39355")_
x_("ERC_ESB_38245_38325",_"ESB_ERC_39570_39650")_
x_("ERC_ESB_38245_38325",_"ESB_EZS_39555_39630")_
x_("ERC_ESB_38245_38325",_"ESB_VAN_39325_39420")_
x_("ERC_ESB_38245_38325",_"ESB_ADA_38400_38460")_
x_("VAS_SAW_38245_38325",_"SAW_ADB_39120_39180")_
x_("VAS_SAW_38245_38325",_"SAW_ASR_38415_38500")_
x_("VAS_SAW_38245_38325",_"SAW_NAJ_39350_39490")_
x_("VAS_SAW_38245_38325",_"SAW_AYT_39585_39650")_
x_("VAS_SAW_38245_38325",_"SAW_ESB_39720_39780")_
x_("VAS_SAW_38245_38325",_"SAW_ADB_38370_38430")_
x_("VAS_SAW_38245_38325",_"SAW_KYA_38430_38500")_
x_("VAS_SAW_38245_38325",_"SAW_TZX_39345_39445")_
x_("VAS_SAW_38245_38325",_"SAW_ESB_39360_39420")_
x_("ESB_ADB_38250_38330",_"ADB_ESB_38365_38440")_
x_("ESB_ADB_38250_38330",_"ADB_SAW_39215_39275")_
x_("ESB_ADB_38250_38330",_"ADB_SAW_38465_38525")_
x_("AYT_SAW_38250_38315",_"SAW_ADB_39120_39180")_
x_("AYT_SAW_38250_38315",_"SAW_ASR_38415_38500")_
x_("AYT_SAW_38250_38315",_"SAW_NAJ_39350_39490")_
x_("AYT_SAW_38250_38315",_"SAW_AYT_39585_39650")_
x_("AYT_SAW_38250_38315",_"SAW_ESB_39720_39780")_
x_("AYT_SAW_38250_38315",_"SAW_ADB_38370_38430")_
x_("AYT_SAW_38250_38315",_"SAW_KYA_38430_38500")_
x_("AYT_SAW_38250_38315",_"SAW_TZX_39345_39445")_
x_("AYT_SAW_38250_38315",_"SAW_ESB_39360_39420")_
x_("SAW_ESB_38280_38340",_"ESB_ADB_39690_39770")_
x_("SAW_ESB_38280_38340",_"ESB_SAW_39480_39540")_
x_("SAW_ESB_38280_38340",_"ESB_SZF_38420_38480")_
x_("SAW_ESB_38280_38340",_"ESB_ECN_38625_38695")_
x_("SAW_ESB_38280_38340",_"ESB_SAW_39600_39660")_
x_("SAW_ESB_38280_38340",_"ESB_MLX_38620_38695")_
x_("SAW_ESB_38280_38340",_"ESB_MQM_39530_39625")_
x_("SAW_ESB_38280_38340",_"ESB_TZX_39240_39320")_
x_("SAW_ESB_38280_38340",_"ESB_HTY_38630_38710")_
x_("SAW_ESB_38280_38340",_"ESB_GNY_38380_38455")_
x_("SAW_ESB_38280_38340",_"ESB_YEI_38635_38695")_
x_("SAW_ESB_38280_38340",_"ESB_BAL_39265_39355")_
x_("SAW_ESB_38280_38340",_"ESB_ERC_39570_39650")_
x_("SAW_ESB_38280_38340",_"ESB_EZS_39555_39630")_
x_("SAW_ESB_38280_38340",_"ESB_VAN_39325_39420")_
x_("SAW_ESB_38280_38340",_"ESB_ADA_38400_38460")_
x_("ECN_HTY_38280_38345",_"HTY_ESB_39120_39195")_
x_("ECN_HTY_38280_38345",_"HTY_ECN_38385_38450")_
x_("ADB_ESB_38365_38440",_"ESB_ADB_39690_39770")_
x_("ADB_ESB_38365_38440",_"ESB_SAW_39480_39540")_
x_("ADB_ESB_38365_38440",_"ESB_ECN_38625_38695")_
x_("ADB_ESB_38365_38440",_"ESB_SAW_39600_39660")_
x_("ADB_ESB_38365_38440",_"ESB_ADA_39840_39900")_
x_("ADB_ESB_38365_38440",_"ESB_MLX_38620_38695")_
x_("ADB_ESB_38365_38440",_"ESB_MQM_39530_39625")_
x_("ADB_ESB_38365_38440",_"ESB_TZX_39240_39320")_
x_("ADB_ESB_38365_38440",_"ESB_HTY_38630_38710")_
x_("ADB_ESB_38365_38440",_"ESB_YEI_38635_38695")_
x_("ADB_ESB_38365_38440",_"ESB_GNY_39820_39895")_
x_("ADB_ESB_38365_38440",_"ESB_BAL_39265_39355")_
x_("ADB_ESB_38365_38440",_"ESB_ERC_39570_39650")_
x_("ADB_ESB_38365_38440",_"ESB_EZS_39555_39630")_
x_("ADB_ESB_38365_38440",_"ESB_VAN_39325_39420")_
x_("ADB_ESB_38365_38440",_"ESB_SZF_39860_39920")_
x_("SAW_ADB_38370_38430",_"ADB_ESB_39805_39880")_
x_("SAW_ADB_38370_38430",_"ADB_SAW_39215_39275")_
x_("SAW_ADB_38370_38430",_"ADB_SAW_38465_38525")_
x_("ESB_GNY_38380_38455",_"GNY_ESB_38490_38570")_
x_("HTY_ECN_38385_38450",_"ECN_ESB_39120_39190")_
x_("HTY_ECN_38385_38450",_"ECN_ESB_38495_38565")_
x_("ESB_ADA_38400_38460",_"ADA_ESB_38500_38565")_
x_("SAW_ASR_38415_38500",_"ASR_SAW_38535_38625")_
x_("ESB_SZF_38420_38480",_"SZF_ESB_38515_38575")_
x_("SAW_KYA_38430_38500",_"KYA_SAW_38535_38605")_
x_("ADB_SAW_38465_38525",_"SAW_ADB_39120_39180")_
x_("ADB_SAW_38465_38525",_"SAW_ASR_39855_39940")_
x_("ADB_SAW_38465_38525",_"SAW_ADB_39810_39870")_
x_("ADB_SAW_38465_38525",_"SAW_NAJ_39350_39490")_
x_("ADB_SAW_38465_38525",_"SAW_AYT_39585_39650")_
x_("ADB_SAW_38465_38525",_"SAW_ESB_39720_39780")_
x_("ADB_SAW_38465_38525",_"SAW_TZX_39345_39445")_
x_("ADB_SAW_38465_38525",_"SAW_ESB_39360_39420")_
x_("GNY_ESB_38490_38570",_"ESB_ADB_39690_39770")_
x_("GNY_ESB_38490_38570",_"ESB_SAW_39480_39540")_
x_("GNY_ESB_38490_38570",_"ESB_ECN_38625_38695")_
x_("GNY_ESB_38490_38570",_"ESB_SAW_39600_39660")_
x_("GNY_ESB_38490_38570",_"ESB_ADA_39840_39900")_
x_("GNY_ESB_38490_38570",_"ESB_MLX_38620_38695")_
x_("GNY_ESB_38490_38570",_"ESB_MQM_39530_39625")_
x_("GNY_ESB_38490_38570",_"ESB_TZX_39240_39320")_
x_("GNY_ESB_38490_38570",_"ESB_HTY_38630_38710")_
x_("GNY_ESB_38490_38570",_"ESB_YEI_38635_38695")_
x_("GNY_ESB_38490_38570",_"ESB_GNY_39820_39895")_
x_("GNY_ESB_38490_38570",_"ESB_BAL_39265_39355")_
x_("GNY_ESB_38490_38570",_"ESB_ERC_39570_39650")_
x_("GNY_ESB_38490_38570",_"ESB_EZS_39555_39630")_
x_("GNY_ESB_38490_38570",_"ESB_VAN_39325_39420")_
x_("GNY_ESB_38490_38570",_"ESB_SZF_39860_39920")_
x_("ECN_ESB_38495_38565",_"ESB_ADB_39690_39770")_
x_("ECN_ESB_38495_38565",_"ESB_SAW_39480_39540")_
x_("ECN_ESB_38495_38565",_"ESB_ECN_38625_38695")_
x_("ECN_ESB_38495_38565",_"ESB_SAW_39600_39660")_
x_("ECN_ESB_38495_38565",_"ESB_ADA_39840_39900")_
x_("ECN_ESB_38495_38565",_"ESB_MLX_38620_38695")_
x_("ECN_ESB_38495_38565",_"ESB_MQM_39530_39625")_
x_("ECN_ESB_38495_38565",_"ESB_TZX_39240_39320")_
x_("ECN_ESB_38495_38565",_"ESB_HTY_38630_38710")_
x_("ECN_ESB_38495_38565",_"ESB_YEI_38635_38695")_
x_("ECN_ESB_38495_38565",_"ESB_GNY_39820_39895")_
x_("ECN_ESB_38495_38565",_"ESB_BAL_39265_39355")_
x_("ECN_ESB_38495_38565",_"ESB_ERC_39570_39650")_
x_("ECN_ESB_38495_38565",_"ESB_EZS_39555_39630")_
x_("ECN_ESB_38495_38565",_"ESB_VAN_39325_39420")_
x_("ECN_ESB_38495_38565",_"ESB_SZF_39860_39920")_
x_("ADA_ESB_38500_38565",_"ESB_ADB_39690_39770")_
x_("ADA_ESB_38500_38565",_"ESB_SAW_39480_39540")_
x_("ADA_ESB_38500_38565",_"ESB_ECN_38625_38695")_
x_("ADA_ESB_38500_38565",_"ESB_SAW_39600_39660")_
x_("ADA_ESB_38500_38565",_"ESB_ADA_39840_39900")_
x_("ADA_ESB_38500_38565",_"ESB_MLX_38620_38695")_
x_("ADA_ESB_38500_38565",_"ESB_MQM_39530_39625")_
x_("ADA_ESB_38500_38565",_"ESB_TZX_39240_39320")_
x_("ADA_ESB_38500_38565",_"ESB_HTY_38630_38710")_
x_("ADA_ESB_38500_38565",_"ESB_YEI_38635_38695")_
x_("ADA_ESB_38500_38565",_"ESB_GNY_39820_39895")_
x_("ADA_ESB_38500_38565",_"ESB_BAL_39265_39355")_
x_("ADA_ESB_38500_38565",_"ESB_ERC_39570_39650")_
x_("ADA_ESB_38500_38565",_"ESB_EZS_39555_39630")_
x_("ADA_ESB_38500_38565",_"ESB_VAN_39325_39420")_
x_("ADA_ESB_38500_38565",_"ESB_SZF_39860_39920")_
x_("SZF_ESB_38515_38575",_"ESB_ADB_39690_39770")_
x_("SZF_ESB_38515_38575",_"ESB_SAW_39480_39540")_
x_("SZF_ESB_38515_38575",_"ESB_ECN_38625_38695")_
x_("SZF_ESB_38515_38575",_"ESB_SAW_39600_39660")_
x_("SZF_ESB_38515_38575",_"ESB_ADA_39840_39900")_
x_("SZF_ESB_38515_38575",_"ESB_MLX_38620_38695")_
x_("SZF_ESB_38515_38575",_"ESB_MQM_39530_39625")_
x_("SZF_ESB_38515_38575",_"ESB_TZX_39240_39320")_
x_("SZF_ESB_38515_38575",_"ESB_HTY_38630_38710")_
x_("SZF_ESB_38515_38575",_"ESB_YEI_38635_38695")_
x_("SZF_ESB_38515_38575",_"ESB_GNY_39820_39895")_
x_("SZF_ESB_38515_38575",_"ESB_BAL_39265_39355")_
x_("SZF_ESB_38515_38575",_"ESB_ERC_39570_39650")_
x_("SZF_ESB_38515_38575",_"ESB_EZS_39555_39630")_
x_("SZF_ESB_38515_38575",_"ESB_VAN_39325_39420")_
x_("SZF_ESB_38515_38575",_"ESB_SZF_39860_39920")_
x_("ASR_SAW_38535_38625",_"SAW_ADB_39120_39180")_
x_("ASR_SAW_38535_38625",_"SAW_ASR_39855_39940")_
x_("ASR_SAW_38535_38625",_"SAW_ADB_39810_39870")_
x_("ASR_SAW_38535_38625",_"SAW_NAJ_39350_39490")_
x_("ASR_SAW_38535_38625",_"SAW_AYT_39585_39650")_
x_("ASR_SAW_38535_38625",_"SAW_ESB_39720_39780")_
x_("ASR_SAW_38535_38625",_"SAW_TZX_39345_39445")_
x_("ASR_SAW_38535_38625",_"SAW_ESB_39360_39420")_
x_("KYA_SAW_38535_38605",_"SAW_ADB_39120_39180")_
x_("KYA_SAW_38535_38605",_"SAW_ASR_39855_39940")_
x_("KYA_SAW_38535_38605",_"SAW_ADB_39810_39870")_
x_("KYA_SAW_38535_38605",_"SAW_NAJ_39350_39490")_
x_("KYA_SAW_38535_38605",_"SAW_AYT_39585_39650")_
x_("KYA_SAW_38535_38605",_"SAW_ESB_39720_39780")_
x_("KYA_SAW_38535_38605",_"SAW_TZX_39345_39445")_
x_("KYA_SAW_38535_38605",_"SAW_ESB_39360_39420")_
x_("ESB_MLX_38620_38695",_"MLX_ESB_39120_39195")_
x_("ESB_ECN_38625_38695",_"ECN_ESB_39120_39190")_
x_("ESB_HTY_38630_38710",_"HTY_ESB_39120_39195")_
x_("ESB_YEI_38635_38695",_"YEI_ESB_39120_39180")_
x_("SAW_ADB_39120_39180",_"ADB_SAW_39905_39965")_
x_("SAW_ADB_39120_39180",_"ADB_ESB_39805_39880")_
x_("SAW_ADB_39120_39180",_"ADB_SAW_39215_39275")_
x_("MLX_ESB_39120_39195",_"ESB_HTY_40070_40150")_
x_("MLX_ESB_39120_39195",_"ESB_ADB_39690_39770")_
x_("MLX_ESB_39120_39195",_"ESB_SAW_39480_39540")_
x_("MLX_ESB_39120_39195",_"ESB_YEI_40075_40135")_
x_("MLX_ESB_39120_39195",_"ESB_ECN_40065_40135")_
x_("MLX_ESB_39120_39195",_"ESB_SAW_39600_39660")_
x_("MLX_ESB_39120_39195",_"ESB_ADA_39840_39900")_
x_("MLX_ESB_39120_39195",_"ESB_MQM_39530_39625")_
x_("MLX_ESB_39120_39195",_"ESB_TZX_39240_39320")_
x_("MLX_ESB_39120_39195",_"ESB_GNY_39820_39895")_
x_("MLX_ESB_39120_39195",_"ESB_BAL_39265_39355")_
x_("MLX_ESB_39120_39195",_"ESB_ERC_39570_39650")_
x_("MLX_ESB_39120_39195",_"ESB_EZS_39555_39630")_
x_("MLX_ESB_39120_39195",_"ESB_MLX_40060_40135")_
x_("MLX_ESB_39120_39195",_"ESB_VAN_39325_39420")_
x_("MLX_ESB_39120_39195",_"ESB_SZF_39860_39920")_
x_("HTY_ESB_39120_39195",_"ESB_HTY_40070_40150")_
x_("HTY_ESB_39120_39195",_"ESB_ADB_39690_39770")_
x_("HTY_ESB_39120_39195",_"ESB_SAW_39480_39540")_
x_("HTY_ESB_39120_39195",_"ESB_YEI_40075_40135")_
x_("HTY_ESB_39120_39195",_"ESB_ECN_40065_40135")_
x_("HTY_ESB_39120_39195",_"ESB_SAW_39600_39660")_
x_("HTY_ESB_39120_39195",_"ESB_ADA_39840_39900")_
x_("HTY_ESB_39120_39195",_"ESB_MQM_39530_39625")_
x_("HTY_ESB_39120_39195",_"ESB_TZX_39240_39320")_
x_("HTY_ESB_39120_39195",_"ESB_GNY_39820_39895")_
x_("HTY_ESB_39120_39195",_"ESB_BAL_39265_39355")_
x_("HTY_ESB_39120_39195",_"ESB_ERC_39570_39650")_
x_("HTY_ESB_39120_39195",_"ESB_EZS_39555_39630")_
x_("HTY_ESB_39120_39195",_"ESB_MLX_40060_40135")_
x_("HTY_ESB_39120_39195",_"ESB_VAN_39325_39420")_
x_("HTY_ESB_39120_39195",_"ESB_SZF_39860_39920")_
x_("ECN_ESB_39120_39190",_"ESB_HTY_40070_40150")_
x_("ECN_ESB_39120_39190",_"ESB_ADB_39690_39770")_
x_("ECN_ESB_39120_39190",_"ESB_SAW_39480_39540")_
x_("ECN_ESB_39120_39190",_"ESB_YEI_40075_40135")_
x_("ECN_ESB_39120_39190",_"ESB_ECN_40065_40135")_
x_("ECN_ESB_39120_39190",_"ESB_SAW_39600_39660")_
x_("ECN_ESB_39120_39190",_"ESB_ADA_39840_39900")_
x_("ECN_ESB_39120_39190",_"ESB_MQM_39530_39625")_
x_("ECN_ESB_39120_39190",_"ESB_TZX_39240_39320")_
x_("ECN_ESB_39120_39190",_"ESB_GNY_39820_39895")_
x_("ECN_ESB_39120_39190",_"ESB_BAL_39265_39355")_
x_("ECN_ESB_39120_39190",_"ESB_ERC_39570_39650")_
x_("ECN_ESB_39120_39190",_"ESB_EZS_39555_39630")_
x_("ECN_ESB_39120_39190",_"ESB_MLX_40060_40135")_
x_("ECN_ESB_39120_39190",_"ESB_VAN_39325_39420")_
x_("ECN_ESB_39120_39190",_"ESB_SZF_39860_39920")_
x_("YEI_ESB_39120_39180",_"ESB_HTY_40070_40150")_
x_("YEI_ESB_39120_39180",_"ESB_ADB_39690_39770")_
x_("YEI_ESB_39120_39180",_"ESB_SAW_39480_39540")_
x_("YEI_ESB_39120_39180",_"ESB_YEI_40075_40135")_
x_("YEI_ESB_39120_39180",_"ESB_ECN_40065_40135")_
x_("YEI_ESB_39120_39180",_"ESB_SAW_39600_39660")_
x_("YEI_ESB_39120_39180",_"ESB_ADA_39840_39900")_
x_("YEI_ESB_39120_39180",_"ESB_MQM_39530_39625")_
x_("YEI_ESB_39120_39180",_"ESB_TZX_39240_39320")_
x_("YEI_ESB_39120_39180",_"ESB_GNY_39820_39895")_
x_("YEI_ESB_39120_39180",_"ESB_BAL_39265_39355")_
x_("YEI_ESB_39120_39180",_"ESB_ERC_39570_39650")_
x_("YEI_ESB_39120_39180",_"ESB_EZS_39555_39630")_
x_("YEI_ESB_39120_39180",_"ESB_MLX_40060_40135")_
x_("YEI_ESB_39120_39180",_"ESB_VAN_39325_39420")_
x_("YEI_ESB_39120_39180",_"ESB_SZF_39860_39920")_
x_("ADB_SAW_39215_39275",_"SAW_ASR_39855_39940")_
x_("ADB_SAW_39215_39275",_"SAW_ADB_39810_39870")_
x_("ADB_SAW_39215_39275",_"SAW_NAJ_39350_39490")_
x_("ADB_SAW_39215_39275",_"SAW_ADB_40560_40620")_
x_("ADB_SAW_39215_39275",_"SAW_AYT_39585_39650")_
x_("ADB_SAW_39215_39275",_"SAW_ESB_39720_39780")_
x_("ADB_SAW_39215_39275",_"SAW_TZX_39345_39445")_
x_("ADB_SAW_39215_39275",_"SAW_ESB_39360_39420")_
x_("ESB_TZX_39240_39320",_"TZX_SAW_39480_39585")_
x_("ESB_TZX_39240_39320",_"TZX_ESB_39355_39435")_
x_("ESB_BAL_39265_39355",_"BAL_ESB_39390_39485")_
x_("ESB_VAN_39325_39420",_"VAN_ESB_39455_39560")_
x_("SAW_TZX_39345_39445",_"TZX_SAW_39480_39585")_
x_("SAW_TZX_39345_39445",_"TZX_ESB_40795_40875")_
x_("SAW_NAJ_39350_39490",_"NAJ_SAW_39555_39710")_
x_("TZX_ESB_39355_39435",_"ESB_HTY_40070_40150")_
x_("TZX_ESB_39355_39435",_"ESB_ADB_39690_39770")_
x_("TZX_ESB_39355_39435",_"ESB_SAW_39480_39540")_
x_("TZX_ESB_39355_39435",_"ESB_YEI_40075_40135")_
x_("TZX_ESB_39355_39435",_"ESB_AYT_40860_40925")_
x_("TZX_ESB_39355_39435",_"ESB_ECN_40065_40135")_
x_("TZX_ESB_39355_39435",_"ESB_TZX_40680_40760")_
x_("TZX_ESB_39355_39435",_"ESB_VAN_40765_40860")_
x_("TZX_ESB_39355_39435",_"ESB_SAW_39600_39660")_
x_("TZX_ESB_39355_39435",_"ESB_ADA_39840_39900")_
x_("TZX_ESB_39355_39435",_"ESB_MQM_39530_39625")_
x_("TZX_ESB_39355_39435",_"ESB_AJI_40690_40785")_
x_("TZX_ESB_39355_39435",_"ESB_GNY_39820_39895")_
x_("TZX_ESB_39355_39435",_"ESB_ERC_39570_39650")_
x_("TZX_ESB_39355_39435",_"ESB_EZS_39555_39630")_
x_("TZX_ESB_39355_39435",_"ESB_MLX_40060_40135")_
x_("TZX_ESB_39355_39435",_"ESB_BAL_40705_40795")_
x_("TZX_ESB_39355_39435",_"ESB_SZF_39860_39920")_
x_("SAW_ESB_39360_39420",_"ESB_HTY_40070_40150")_
x_("SAW_ESB_39360_39420",_"ESB_ADB_39690_39770")_
x_("SAW_ESB_39360_39420",_"ESB_SAW_39480_39540")_
x_("SAW_ESB_39360_39420",_"ESB_YEI_40075_40135")_
x_("SAW_ESB_39360_39420",_"ESB_AYT_40860_40925")_
x_("SAW_ESB_39360_39420",_"ESB_ECN_40065_40135")_
x_("SAW_ESB_39360_39420",_"ESB_TZX_40680_40760")_
x_("SAW_ESB_39360_39420",_"ESB_VAN_40765_40860")_
x_("SAW_ESB_39360_39420",_"ESB_SAW_39600_39660")_
x_("SAW_ESB_39360_39420",_"ESB_ADA_39840_39900")_
x_("SAW_ESB_39360_39420",_"ESB_MQM_39530_39625")_
x_("SAW_ESB_39360_39420",_"ESB_AJI_40690_40785")_
x_("SAW_ESB_39360_39420",_"ESB_GNY_39820_39895")_
x_("SAW_ESB_39360_39420",_"ESB_ERC_39570_39650")_
x_("SAW_ESB_39360_39420",_"ESB_EZS_39555_39630")_
x_("SAW_ESB_39360_39420",_"ESB_MLX_40060_40135")_
x_("SAW_ESB_39360_39420",_"ESB_BAL_40705_40795")_
x_("SAW_ESB_39360_39420",_"ESB_SZF_39860_39920")_
x_("BAL_ESB_39390_39485",_"ESB_HTY_40070_40150")_
x_("BAL_ESB_39390_39485",_"ESB_ADB_39690_39770")_
x_("BAL_ESB_39390_39485",_"ESB_YEI_40075_40135")_
x_("BAL_ESB_39390_39485",_"ESB_AYT_40860_40925")_
x_("BAL_ESB_39390_39485",_"ESB_ECN_40065_40135")_
x_("BAL_ESB_39390_39485",_"ESB_TZX_40680_40760")_
x_("BAL_ESB_39390_39485",_"ESB_VAN_40765_40860")_
x_("BAL_ESB_39390_39485",_"ESB_SAW_39600_39660")_
x_("BAL_ESB_39390_39485",_"ESB_ADA_39840_39900")_
x_("BAL_ESB_39390_39485",_"ESB_MQM_39530_39625")_
x_("BAL_ESB_39390_39485",_"ESB_AJI_40690_40785")_
x_("BAL_ESB_39390_39485",_"ESB_GNY_39820_39895")_
x_("BAL_ESB_39390_39485",_"ESB_ERC_39570_39650")_
x_("BAL_ESB_39390_39485",_"ESB_SAW_40920_40980")_
x_("BAL_ESB_39390_39485",_"ESB_EZS_39555_39630")_
x_("BAL_ESB_39390_39485",_"ESB_MLX_40060_40135")_
x_("BAL_ESB_39390_39485",_"ESB_BAL_40705_40795")_
x_("BAL_ESB_39390_39485",_"ESB_SZF_39860_39920")_
x_("VAN_ESB_39455_39560",_"ESB_MQM_40970_41065")_
x_("VAN_ESB_39455_39560",_"ESB_HTY_40070_40150")_
x_("VAN_ESB_39455_39560",_"ESB_ADB_39690_39770")_
x_("VAN_ESB_39455_39560",_"ESB_ECN_40980_41050")_
x_("VAN_ESB_39455_39560",_"ESB_YEI_40075_40135")_
x_("VAN_ESB_39455_39560",_"ESB_AYT_40860_40925")_
x_("VAN_ESB_39455_39560",_"ESB_ECN_40065_40135")_
x_("VAN_ESB_39455_39560",_"ESB_TZX_40680_40760")_
x_("VAN_ESB_39455_39560",_"ESB_VAN_40765_40860")_
x_("VAN_ESB_39455_39560",_"ESB_SAW_39600_39660")_
x_("VAN_ESB_39455_39560",_"ESB_ADA_39840_39900")_
x_("VAN_ESB_39455_39560",_"ESB_AJI_40690_40785")_
x_("VAN_ESB_39455_39560",_"ESB_GNY_39820_39895")_
x_("VAN_ESB_39455_39560",_"ESB_SAW_40920_40980")_
x_("VAN_ESB_39455_39560",_"ESB_MLX_40060_40135")_
x_("VAN_ESB_39455_39560",_"ESB_BAL_40705_40795")_
x_("VAN_ESB_39455_39560",_"ESB_SZF_39860_39920")_
x_("ESB_SAW_39480_39540",_"SAW_ASR_39855_39940")_
x_("ESB_SAW_39480_39540",_"SAW_ADB_39810_39870")_
x_("ESB_SAW_39480_39540",_"SAW_ADB_40560_40620")_
x_("ESB_SAW_39480_39540",_"SAW_AYT_39585_39650")_
x_("ESB_SAW_39480_39540",_"SAW_ESB_39720_39780")_
x_("ESB_SAW_39480_39540",_"SAW_TZX_40785_40885")_
x_("ESB_SAW_39480_39540",_"SAW_ESB_40800_40860")_
x_("TZX_SAW_39480_39585",_"SAW_VAS_41010_41090")_
x_("TZX_SAW_39480_39585",_"SAW_ASR_39855_39940")_
x_("TZX_SAW_39480_39585",_"SAW_ADB_39810_39870")_
x_("TZX_SAW_39480_39585",_"SAW_ADB_40560_40620")_
x_("TZX_SAW_39480_39585",_"SAW_ESB_39720_39780")_
x_("TZX_SAW_39480_39585",_"SAW_TZX_40785_40885")_
x_("TZX_SAW_39480_39585",_"SAW_AYT_41025_41090")_
x_("TZX_SAW_39480_39585",_"SAW_ESB_40800_40860")_
x_("ESB_MQM_39530_39625",_"MQM_ESB_39660_39755")_
x_("ESB_EZS_39555_39630",_"EZS_ESB_39665_39745")_
x_("NAJ_SAW_39555_39710",_"SAW_VAS_41010_41090")_
x_("NAJ_SAW_39555_39710",_"SAW_ASR_39855_39940")_
x_("NAJ_SAW_39555_39710",_"SAW_ADB_39810_39870")_
x_("NAJ_SAW_39555_39710",_"SAW_ADB_40560_40620")_
x_("NAJ_SAW_39555_39710",_"SAW_TZX_40785_40885")_
x_("NAJ_SAW_39555_39710",_"SAW_AYT_41025_41090")_
x_("NAJ_SAW_39555_39710",_"SAW_ESB_40800_40860")_
x_("ESB_ERC_39570_39650",_"ERC_ESB_39685_39765")_
x_("SAW_AYT_39585_39650",_"AYT_SAW_39690_39755")_
x_("SAW_AYT_39585_39650",_"AYT_ESB_40960_41025")_
x_("ESB_SAW_39600_39660",_"SAW_VAS_41010_41090")_
x_("ESB_SAW_39600_39660",_"SAW_ASR_39855_39940")_
x_("ESB_SAW_39600_39660",_"SAW_ADB_39810_39870")_
x_("ESB_SAW_39600_39660",_"SAW_ADB_40560_40620")_
x_("ESB_SAW_39600_39660",_"SAW_ESB_39720_39780")_
x_("ESB_SAW_39600_39660",_"SAW_TZX_40785_40885")_
x_("ESB_SAW_39600_39660",_"SAW_AYT_41025_41090")_
x_("ESB_SAW_39600_39660",_"SAW_ESB_40800_40860")_
x_("MQM_ESB_39660_39755",_"ESB_MQM_40970_41065")_
x_("MQM_ESB_39660_39755",_"ESB_HTY_40070_40150")_
x_("MQM_ESB_39660_39755",_"ESB_ECN_40980_41050")_
x_("MQM_ESB_39660_39755",_"ESB_SAW_41040_41100")_
x_("MQM_ESB_39660_39755",_"ESB_YEI_40075_40135")_
x_("MQM_ESB_39660_39755",_"ESB_AYT_40860_40925")_
x_("MQM_ESB_39660_39755",_"ESB_ECN_40065_40135")_
x_("MQM_ESB_39660_39755",_"ESB_TZX_40680_40760")_
x_("MQM_ESB_39660_39755",_"ESB_VAN_40765_40860")_
x_("MQM_ESB_39660_39755",_"ESB_ADA_39840_39900")_
x_("MQM_ESB_39660_39755",_"ESB_ERC_41010_41090")_
x_("MQM_ESB_39660_39755",_"ESB_ADB_41130_41210")_
x_("MQM_ESB_39660_39755",_"ESB_AJI_40690_40785")_
x_("MQM_ESB_39660_39755",_"ESB_GNY_39820_39895")_
x_("MQM_ESB_39660_39755",_"ESB_SAW_40920_40980")_
x_("MQM_ESB_39660_39755",_"ESB_MLX_40060_40135")_
x_("MQM_ESB_39660_39755",_"ESB_BAL_40705_40795")_
x_("MQM_ESB_39660_39755",_"ESB_SZF_39860_39920")_
x_("EZS_ESB_39665_39745",_"ESB_MQM_40970_41065")_
x_("EZS_ESB_39665_39745",_"ESB_HTY_40070_40150")_
x_("EZS_ESB_39665_39745",_"ESB_ECN_40980_41050")_
x_("EZS_ESB_39665_39745",_"ESB_SAW_41040_41100")_
x_("EZS_ESB_39665_39745",_"ESB_YEI_40075_40135")_
x_("EZS_ESB_39665_39745",_"ESB_AYT_40860_40925")_
x_("EZS_ESB_39665_39745",_"ESB_ECN_40065_40135")_
x_("EZS_ESB_39665_39745",_"ESB_TZX_40680_40760")_
x_("EZS_ESB_39665_39745",_"ESB_VAN_40765_40860")_
x_("EZS_ESB_39665_39745",_"ESB_ADA_39840_39900")_
x_("EZS_ESB_39665_39745",_"ESB_ERC_41010_41090")_
x_("EZS_ESB_39665_39745",_"ESB_ADB_41130_41210")_
x_("EZS_ESB_39665_39745",_"ESB_AJI_40690_40785")_
x_("EZS_ESB_39665_39745",_"ESB_GNY_39820_39895")_
x_("EZS_ESB_39665_39745",_"ESB_SAW_40920_40980")_
x_("EZS_ESB_39665_39745",_"ESB_MLX_40060_40135")_
x_("EZS_ESB_39665_39745",_"ESB_BAL_40705_40795")_
x_("EZS_ESB_39665_39745",_"ESB_SZF_39860_39920")_
x_("ERC_ESB_39685_39765",_"ESB_MQM_40970_41065")_
x_("ERC_ESB_39685_39765",_"ESB_HTY_40070_40150")_
x_("ERC_ESB_39685_39765",_"ESB_ECN_40980_41050")_
x_("ERC_ESB_39685_39765",_"ESB_SAW_41040_41100")_
x_("ERC_ESB_39685_39765",_"ESB_YEI_40075_40135")_
x_("ERC_ESB_39685_39765",_"ESB_AYT_40860_40925")_
x_("ERC_ESB_39685_39765",_"ESB_ECN_40065_40135")_
x_("ERC_ESB_39685_39765",_"ESB_TZX_40680_40760")_
x_("ERC_ESB_39685_39765",_"ESB_VAN_40765_40860")_
x_("ERC_ESB_39685_39765",_"ESB_ADA_39840_39900")_
x_("ERC_ESB_39685_39765",_"ESB_ERC_41010_41090")_
x_("ERC_ESB_39685_39765",_"ESB_ADB_41130_41210")_
x_("ERC_ESB_39685_39765",_"ESB_AJI_40690_40785")_
x_("ERC_ESB_39685_39765",_"ESB_GNY_39820_39895")_
x_("ERC_ESB_39685_39765",_"ESB_SAW_40920_40980")_
x_("ERC_ESB_39685_39765",_"ESB_MLX_40060_40135")_
x_("ERC_ESB_39685_39765",_"ESB_BAL_40705_40795")_
x_("ERC_ESB_39685_39765",_"ESB_SZF_39860_39920")_
x_("ESB_ADB_39690_39770",_"ADB_SAW_39905_39965")_
x_("ESB_ADB_39690_39770",_"ADB_ESB_39805_39880")_
x_("ESB_ADB_39690_39770",_"ADB_SAW_40655_40715")_
x_("AYT_SAW_39690_39755",_"SAW_VAS_41010_41090")_
x_("AYT_SAW_39690_39755",_"SAW_ASR_39855_39940")_
x_("AYT_SAW_39690_39755",_"SAW_ESB_41160_41220")_
x_("AYT_SAW_39690_39755",_"SAW_ADB_39810_39870")_
x_("AYT_SAW_39690_39755",_"SAW_ADB_40560_40620")_
x_("AYT_SAW_39690_39755",_"SAW_TZX_40785_40885")_
x_("AYT_SAW_39690_39755",_"SAW_AYT_41025_41090")_
x_("AYT_SAW_39690_39755",_"SAW_ESB_40800_40860")_
x_("SAW_ESB_39720_39780",_"ESB_MQM_40970_41065")_
x_("SAW_ESB_39720_39780",_"ESB_HTY_40070_40150")_
x_("SAW_ESB_39720_39780",_"ESB_ECN_40980_41050")_
x_("SAW_ESB_39720_39780",_"ESB_SAW_41040_41100")_
x_("SAW_ESB_39720_39780",_"ESB_YEI_40075_40135")_
x_("SAW_ESB_39720_39780",_"ESB_AYT_40860_40925")_
x_("SAW_ESB_39720_39780",_"ESB_ECN_40065_40135")_
x_("SAW_ESB_39720_39780",_"ESB_TZX_40680_40760")_
x_("SAW_ESB_39720_39780",_"ESB_VAN_40765_40860")_
x_("SAW_ESB_39720_39780",_"ESB_ADA_39840_39900")_
x_("SAW_ESB_39720_39780",_"ESB_ERC_41010_41090")_
x_("SAW_ESB_39720_39780",_"ESB_ADB_41130_41210")_
x_("SAW_ESB_39720_39780",_"ESB_AJI_40690_40785")_
x_("SAW_ESB_39720_39780",_"ESB_GNY_39820_39895")_
x_("SAW_ESB_39720_39780",_"ESB_SAW_40920_40980")_
x_("SAW_ESB_39720_39780",_"ESB_MLX_40060_40135")_
x_("SAW_ESB_39720_39780",_"ESB_BAL_40705_40795")_
x_("SAW_ESB_39720_39780",_"ESB_SZF_39860_39920")_
x_("ADB_ESB_39805_39880",_"ESB_MQM_40970_41065")_
x_("ADB_ESB_39805_39880",_"ESB_HTY_40070_40150")_
x_("ADB_ESB_39805_39880",_"ESB_ECN_40980_41050")_
x_("ADB_ESB_39805_39880",_"ESB_SAW_41040_41100")_
x_("ADB_ESB_39805_39880",_"ESB_YEI_40075_40135")_
x_("ADB_ESB_39805_39880",_"ESB_AYT_40860_40925")_
x_("ADB_ESB_39805_39880",_"ESB_ECN_40065_40135")_
x_("ADB_ESB_39805_39880",_"ESB_TZX_40680_40760")_
x_("ADB_ESB_39805_39880",_"ESB_VAN_40765_40860")_
x_("ADB_ESB_39805_39880",_"ESB_ERC_41010_41090")_
x_("ADB_ESB_39805_39880",_"ESB_ADB_41130_41210")_
x_("ADB_ESB_39805_39880",_"ESB_SZF_41300_41360")_
x_("ADB_ESB_39805_39880",_"ESB_AJI_40690_40785")_
x_("ADB_ESB_39805_39880",_"ESB_GNY_41260_41335")_
x_("ADB_ESB_39805_39880",_"ESB_ADA_41280_41340")_
x_("ADB_ESB_39805_39880",_"ESB_SAW_40920_40980")_
x_("ADB_ESB_39805_39880",_"ESB_MLX_40060_40135")_
x_("ADB_ESB_39805_39880",_"ESB_BAL_40705_40795")_
x_("SAW_ADB_39810_39870",_"ADB_ESB_41245_41320")_
x_("SAW_ADB_39810_39870",_"ADB_SAW_39905_39965")_
x_("SAW_ADB_39810_39870",_"ADB_SAW_40655_40715")_
x_("ESB_GNY_39820_39895",_"GNY_ESB_39930_40010")_
x_("ESB_ADA_39840_39900",_"ADA_ESB_39940_40005")_
x_("SAW_ASR_39855_39940",_"ASR_SAW_39975_40065")_
x_("ESB_SZF_39860_39920",_"SZF_ESB_39955_40015")_
x_("ADB_SAW_39905_39965",_"SAW_VAS_41010_41090")_
x_("ADB_SAW_39905_39965",_"SAW_ESB_41160_41220")_
x_("ADB_SAW_39905_39965",_"SAW_ADB_40560_40620")_
x_("ADB_SAW_39905_39965",_"SAW_ADB_41250_41310")_
x_("ADB_SAW_39905_39965",_"SAW_TZX_40785_40885")_
x_("ADB_SAW_39905_39965",_"SAW_KYA_41310_41380")_
x_("ADB_SAW_39905_39965",_"SAW_AYT_41025_41090")_
x_("ADB_SAW_39905_39965",_"SAW_ASR_41295_41380")_
x_("ADB_SAW_39905_39965",_"SAW_ESB_40800_40860")_
x_("GNY_ESB_39930_40010",_"ESB_MQM_40970_41065")_
x_("GNY_ESB_39930_40010",_"ESB_HTY_40070_40150")_
x_("GNY_ESB_39930_40010",_"ESB_ECN_40980_41050")_
x_("GNY_ESB_39930_40010",_"ESB_SAW_41040_41100")_
x_("GNY_ESB_39930_40010",_"ESB_YEI_40075_40135")_
x_("GNY_ESB_39930_40010",_"ESB_AYT_40860_40925")_
x_("GNY_ESB_39930_40010",_"ESB_ECN_40065_40135")_
x_("GNY_ESB_39930_40010",_"ESB_TZX_40680_40760")_
x_("GNY_ESB_39930_40010",_"ESB_VAN_40765_40860")_
x_("GNY_ESB_39930_40010",_"ESB_ERC_41010_41090")_
x_("GNY_ESB_39930_40010",_"ESB_ADB_41130_41210")_
x_("GNY_ESB_39930_40010",_"ESB_SZF_41300_41360")_
x_("GNY_ESB_39930_40010",_"ESB_AJI_40690_40785")_
x_("GNY_ESB_39930_40010",_"ESB_GNY_41260_41335")_
x_("GNY_ESB_39930_40010",_"ESB_ADA_41280_41340")_
x_("GNY_ESB_39930_40010",_"ESB_SAW_40920_40980")_
x_("GNY_ESB_39930_40010",_"ESB_MLX_40060_40135")_
x_("GNY_ESB_39930_40010",_"ESB_BAL_40705_40795")_
x_("ADA_ESB_39940_40005",_"ESB_MQM_40970_41065")_
x_("ADA_ESB_39940_40005",_"ESB_HTY_40070_40150")_
x_("ADA_ESB_39940_40005",_"ESB_ECN_40980_41050")_
x_("ADA_ESB_39940_40005",_"ESB_SAW_41040_41100")_
x_("ADA_ESB_39940_40005",_"ESB_YEI_40075_40135")_
x_("ADA_ESB_39940_40005",_"ESB_AYT_40860_40925")_
x_("ADA_ESB_39940_40005",_"ESB_ECN_40065_40135")_
x_("ADA_ESB_39940_40005",_"ESB_TZX_40680_40760")_
x_("ADA_ESB_39940_40005",_"ESB_VAN_40765_40860")_
x_("ADA_ESB_39940_40005",_"ESB_ERC_41010_41090")_
x_("ADA_ESB_39940_40005",_"ESB_ADB_41130_41210")_
x_("ADA_ESB_39940_40005",_"ESB_SZF_41300_41360")_
x_("ADA_ESB_39940_40005",_"ESB_AJI_40690_40785")_
x_("ADA_ESB_39940_40005",_"ESB_GNY_41260_41335")_
x_("ADA_ESB_39940_40005",_"ESB_ADA_41280_41340")_
x_("ADA_ESB_39940_40005",_"ESB_SAW_40920_40980")_
x_("ADA_ESB_39940_40005",_"ESB_MLX_40060_40135")_
x_("ADA_ESB_39940_40005",_"ESB_BAL_40705_40795")_
x_("SZF_ESB_39955_40015",_"ESB_MQM_40970_41065")_
x_("SZF_ESB_39955_40015",_"ESB_HTY_40070_40150")_
x_("SZF_ESB_39955_40015",_"ESB_ECN_40980_41050")_
x_("SZF_ESB_39955_40015",_"ESB_SAW_41040_41100")_
x_("SZF_ESB_39955_40015",_"ESB_YEI_40075_40135")_
x_("SZF_ESB_39955_40015",_"ESB_AYT_40860_40925")_
x_("SZF_ESB_39955_40015",_"ESB_ECN_40065_40135")_
x_("SZF_ESB_39955_40015",_"ESB_TZX_40680_40760")_
x_("SZF_ESB_39955_40015",_"ESB_VAN_40765_40860")_
x_("SZF_ESB_39955_40015",_"ESB_ERC_41010_41090")_
x_("SZF_ESB_39955_40015",_"ESB_ADB_41130_41210")_
x_("SZF_ESB_39955_40015",_"ESB_SZF_41300_41360")_
x_("SZF_ESB_39955_40015",_"ESB_AJI_40690_40785")_
x_("SZF_ESB_39955_40015",_"ESB_GNY_41260_41335")_
x_("SZF_ESB_39955_40015",_"ESB_ADA_41280_41340")_
x_("SZF_ESB_39955_40015",_"ESB_SAW_40920_40980")_
x_("SZF_ESB_39955_40015",_"ESB_MLX_40060_40135")_
x_("SZF_ESB_39955_40015",_"ESB_BAL_40705_40795")_
x_("ASR_SAW_39975_40065",_"SAW_VAS_41010_41090")_
x_("ASR_SAW_39975_40065",_"SAW_ESB_41160_41220")_
x_("ASR_SAW_39975_40065",_"SAW_ADB_40560_40620")_
x_("ASR_SAW_39975_40065",_"SAW_ADB_41250_41310")_
x_("ASR_SAW_39975_40065",_"SAW_TZX_40785_40885")_
x_("ASR_SAW_39975_40065",_"SAW_KYA_41310_41380")_
x_("ASR_SAW_39975_40065",_"SAW_AYT_41025_41090")_
x_("ASR_SAW_39975_40065",_"SAW_ASR_41295_41380")_
x_("ASR_SAW_39975_40065",_"SAW_ESB_40800_40860")_
x_("ESB_MLX_40060_40135",_"MLX_ESB_40560_40635")_
x_("ESB_ECN_40065_40135",_"ECN_ESB_40560_40630")_
x_("ESB_ECN_40065_40135",_"ECN_HTY_41160_41225")_
x_("ESB_ECN_40065_40135",_"ECN_ESB_41375_41445")_
x_("ESB_HTY_40070_40150",_"HTY_ECN_41265_41330")_
x_("ESB_HTY_40070_40150",_"HTY_ESB_40560_40635")_
x_("ESB_YEI_40075_40135",_"YEI_ESB_40560_40620")_
x_("SAW_ADB_40560_40620",_"ADB_ESB_41245_41320")_
x_("SAW_ADB_40560_40620",_"ADB_SAW_41345_41405")_
x_("SAW_ADB_40560_40620",_"ADB_SAW_40655_40715")_
x_("ECN_ESB_40560_40630",_"ESB_MQM_40970_41065")_
x_("ECN_ESB_40560_40630",_"ESB_ECN_40980_41050")_
x_("ECN_ESB_40560_40630",_"ESB_ECN_41505_41575")_
x_("ECN_ESB_40560_40630",_"ESB_SAW_41040_41100")_
x_("ECN_ESB_40560_40630",_"ESB_AYT_40860_40925")_
x_("ECN_ESB_40560_40630",_"ESB_TZX_40680_40760")_
x_("ECN_ESB_40560_40630",_"ESB_VAN_40765_40860")_
x_("ECN_ESB_40560_40630",_"ESB_ERC_41010_41090")_
x_("ECN_ESB_40560_40630",_"ESB_ADB_41130_41210")_
x_("ECN_ESB_40560_40630",_"ESB_SZF_41300_41360")_
x_("ECN_ESB_40560_40630",_"ESB_MLX_41500_41575")_
x_("ECN_ESB_40560_40630",_"ESB_AJI_40690_40785")_
x_("ECN_ESB_40560_40630",_"ESB_GNY_41260_41335")_
x_("ECN_ESB_40560_40630",_"ESB_ADA_41280_41340")_
x_("ECN_ESB_40560_40630",_"ESB_HTY_41510_41590")_
x_("ECN_ESB_40560_40630",_"ESB_SAW_40920_40980")_
x_("ECN_ESB_40560_40630",_"ESB_BAL_40705_40795")_
x_("ECN_ESB_40560_40630",_"ESB_YEI_41515_41575")_
x_("YEI_ESB_40560_40620",_"ESB_MQM_40970_41065")_
x_("YEI_ESB_40560_40620",_"ESB_ECN_40980_41050")_
x_("YEI_ESB_40560_40620",_"ESB_ECN_41505_41575")_
x_("YEI_ESB_40560_40620",_"ESB_SAW_41040_41100")_
x_("YEI_ESB_40560_40620",_"ESB_AYT_40860_40925")_
x_("YEI_ESB_40560_40620",_"ESB_TZX_40680_40760")_
x_("YEI_ESB_40560_40620",_"ESB_VAN_40765_40860")_
x_("YEI_ESB_40560_40620",_"ESB_ERC_41010_41090")_
x_("YEI_ESB_40560_40620",_"ESB_ADB_41130_41210")_
x_("YEI_ESB_40560_40620",_"ESB_SZF_41300_41360")_
x_("YEI_ESB_40560_40620",_"ESB_MLX_41500_41575")_
x_("YEI_ESB_40560_40620",_"ESB_AJI_40690_40785")_
x_("YEI_ESB_40560_40620",_"ESB_GNY_41260_41335")_
x_("YEI_ESB_40560_40620",_"ESB_ADA_41280_41340")_
x_("YEI_ESB_40560_40620",_"ESB_HTY_41510_41590")_
x_("YEI_ESB_40560_40620",_"ESB_SAW_40920_40980")_
x_("YEI_ESB_40560_40620",_"ESB_BAL_40705_40795")_
x_("YEI_ESB_40560_40620",_"ESB_YEI_41515_41575")_
x_("MLX_ESB_40560_40635",_"ESB_MQM_40970_41065")_
x_("MLX_ESB_40560_40635",_"ESB_ECN_40980_41050")_
x_("MLX_ESB_40560_40635",_"ESB_ECN_41505_41575")_
x_("MLX_ESB_40560_40635",_"ESB_SAW_41040_41100")_
x_("MLX_ESB_40560_40635",_"ESB_AYT_40860_40925")_
x_("MLX_ESB_40560_40635",_"ESB_TZX_40680_40760")_
x_("MLX_ESB_40560_40635",_"ESB_VAN_40765_40860")_
x_("MLX_ESB_40560_40635",_"ESB_ERC_41010_41090")_
x_("MLX_ESB_40560_40635",_"ESB_ADB_41130_41210")_
x_("MLX_ESB_40560_40635",_"ESB_SZF_41300_41360")_
x_("MLX_ESB_40560_40635",_"ESB_MLX_41500_41575")_
x_("MLX_ESB_40560_40635",_"ESB_AJI_40690_40785")_
x_("MLX_ESB_40560_40635",_"ESB_GNY_41260_41335")_
x_("MLX_ESB_40560_40635",_"ESB_ADA_41280_41340")_
x_("MLX_ESB_40560_40635",_"ESB_HTY_41510_41590")_
x_("MLX_ESB_40560_40635",_"ESB_SAW_40920_40980")_
x_("MLX_ESB_40560_40635",_"ESB_BAL_40705_40795")_
x_("MLX_ESB_40560_40635",_"ESB_YEI_41515_41575")_
x_("HTY_ESB_40560_40635",_"ESB_MQM_40970_41065")_
x_("HTY_ESB_40560_40635",_"ESB_ECN_40980_41050")_
x_("HTY_ESB_40560_40635",_"ESB_ECN_41505_41575")_
x_("HTY_ESB_40560_40635",_"ESB_SAW_41040_41100")_
x_("HTY_ESB_40560_40635",_"ESB_AYT_40860_40925")_
x_("HTY_ESB_40560_40635",_"ESB_TZX_40680_40760")_
x_("HTY_ESB_40560_40635",_"ESB_VAN_40765_40860")_
x_("HTY_ESB_40560_40635",_"ESB_ERC_41010_41090")_
x_("HTY_ESB_40560_40635",_"ESB_ADB_41130_41210")_
x_("HTY_ESB_40560_40635",_"ESB_SZF_41300_41360")_
x_("HTY_ESB_40560_40635",_"ESB_MLX_41500_41575")_
x_("HTY_ESB_40560_40635",_"ESB_AJI_40690_40785")_
x_("HTY_ESB_40560_40635",_"ESB_GNY_41260_41335")_
x_("HTY_ESB_40560_40635",_"ESB_ADA_41280_41340")_
x_("HTY_ESB_40560_40635",_"ESB_HTY_41510_41590")_
x_("HTY_ESB_40560_40635",_"ESB_SAW_40920_40980")_
x_("HTY_ESB_40560_40635",_"ESB_BAL_40705_40795")_
x_("HTY_ESB_40560_40635",_"ESB_YEI_41515_41575")_
x_("ADB_SAW_40655_40715",_"SAW_VAS_41010_41090")_
x_("ADB_SAW_40655_40715",_"SAW_ESB_41160_41220")_
x_("ADB_SAW_40655_40715",_"SAW_ADB_41250_41310")_
x_("ADB_SAW_40655_40715",_"SAW_TZX_40785_40885")_
x_("ADB_SAW_40655_40715",_"SAW_KYA_41310_41380")_
x_("ADB_SAW_40655_40715",_"SAW_AYT_41025_41090")_
x_("ADB_SAW_40655_40715",_"SAW_ASR_41295_41380")_
x_("ADB_SAW_40655_40715",_"SAW_ESB_40800_40860")_
x_("ESB_TZX_40680_40760",_"TZX_ESB_40795_40875")_
x_("ESB_TZX_40680_40760",_"TZX_SAW_40920_41025")_
x_("ESB_AJI_40690_40785",_"AJI_ESB_40820_40925")_
x_("ESB_BAL_40705_40795",_"BAL_ESB_40830_40925")_
x_("ESB_VAN_40765_40860",_"VAN_ESB_40895_41000")_
x_("SAW_TZX_40785_40885",_"TZX_SAW_40920_41025")_
x_("TZX_ESB_40795_40875",_"ESB_MQM_40970_41065")_
x_("TZX_ESB_40795_40875",_"ESB_ECN_40980_41050")_
x_("TZX_ESB_40795_40875",_"ESB_ECN_41505_41575")_
x_("TZX_ESB_40795_40875",_"ESB_SAW_41040_41100")_
x_("TZX_ESB_40795_40875",_"ESB_ERC_41010_41090")_
x_("TZX_ESB_40795_40875",_"ESB_ADB_41130_41210")_
x_("TZX_ESB_40795_40875",_"ESB_SZF_41300_41360")_
x_("TZX_ESB_40795_40875",_"ESB_MLX_41500_41575")_
x_("TZX_ESB_40795_40875",_"ESB_GNY_41260_41335")_
x_("TZX_ESB_40795_40875",_"ESB_ADA_41280_41340")_
x_("TZX_ESB_40795_40875",_"ESB_HTY_41510_41590")_
x_("TZX_ESB_40795_40875",_"ESB_SAW_40920_40980")_
x_("TZX_ESB_40795_40875",_"ESB_YEI_41515_41575")_
x_("SAW_ESB_40800_40860",_"ESB_MQM_40970_41065")_
x_("SAW_ESB_40800_40860",_"ESB_ECN_40980_41050")_
x_("SAW_ESB_40800_40860",_"ESB_ECN_41505_41575")_
x_("SAW_ESB_40800_40860",_"ESB_SAW_41040_41100")_
x_("SAW_ESB_40800_40860",_"ESB_ERC_41010_41090")_
x_("SAW_ESB_40800_40860",_"ESB_ADB_41130_41210")_
x_("SAW_ESB_40800_40860",_"ESB_SZF_41300_41360")_
x_("SAW_ESB_40800_40860",_"ESB_MLX_41500_41575")_
x_("SAW_ESB_40800_40860",_"ESB_GNY_41260_41335")_
x_("SAW_ESB_40800_40860",_"ESB_ADA_41280_41340")_
x_("SAW_ESB_40800_40860",_"ESB_HTY_41510_41590")_
x_("SAW_ESB_40800_40860",_"ESB_SAW_40920_40980")_
x_("SAW_ESB_40800_40860",_"ESB_YEI_41515_41575")_
x_("AJI_ESB_40820_40925",_"ESB_MQM_40970_41065")_
x_("AJI_ESB_40820_40925",_"ESB_ECN_40980_41050")_
x_("AJI_ESB_40820_40925",_"ESB_ECN_41505_41575")_
x_("AJI_ESB_40820_40925",_"ESB_SAW_41040_41100")_
x_("AJI_ESB_40820_40925",_"ESB_ERC_41010_41090")_
x_("AJI_ESB_40820_40925",_"ESB_ADB_41130_41210")_
x_("AJI_ESB_40820_40925",_"ESB_SZF_41300_41360")_
x_("AJI_ESB_40820_40925",_"ESB_MLX_41500_41575")_
x_("AJI_ESB_40820_40925",_"ESB_GNY_41260_41335")_
x_("AJI_ESB_40820_40925",_"ESB_ADA_41280_41340")_
x_("AJI_ESB_40820_40925",_"ESB_HTY_41510_41590")_
x_("AJI_ESB_40820_40925",_"ESB_YEI_41515_41575")_
x_("BAL_ESB_40830_40925",_"ESB_MQM_40970_41065")_
x_("BAL_ESB_40830_40925",_"ESB_ECN_40980_41050")_
x_("BAL_ESB_40830_40925",_"ESB_ECN_41505_41575")_
x_("BAL_ESB_40830_40925",_"ESB_SAW_41040_41100")_
x_("BAL_ESB_40830_40925",_"ESB_ERC_41010_41090")_
x_("BAL_ESB_40830_40925",_"ESB_ADB_41130_41210")_
x_("BAL_ESB_40830_40925",_"ESB_SZF_41300_41360")_
x_("BAL_ESB_40830_40925",_"ESB_MLX_41500_41575")_
x_("BAL_ESB_40830_40925",_"ESB_GNY_41260_41335")_
x_("BAL_ESB_40830_40925",_"ESB_ADA_41280_41340")_
x_("BAL_ESB_40830_40925",_"ESB_HTY_41510_41590")_
x_("BAL_ESB_40830_40925",_"ESB_YEI_41515_41575")_
x_("ESB_AYT_40860_40925",_"AYT_ESB_40960_41025")_
x_("ESB_AYT_40860_40925",_"AYT_SAW_41130_41195")_
x_("VAN_ESB_40895_41000",_"ESB_ECN_41505_41575")_
x_("VAN_ESB_40895_41000",_"ESB_SAW_41040_41100")_
x_("VAN_ESB_40895_41000",_"ESB_ADB_41130_41210")_
x_("VAN_ESB_40895_41000",_"ESB_SZF_41300_41360")_
x_("VAN_ESB_40895_41000",_"ESB_MLX_41500_41575")_
x_("VAN_ESB_40895_41000",_"ESB_GNY_41260_41335")_
x_("VAN_ESB_40895_41000",_"ESB_ADA_41280_41340")_
x_("VAN_ESB_40895_41000",_"ESB_HTY_41510_41590")_
x_("VAN_ESB_40895_41000",_"ESB_YEI_41515_41575")_
x_("ESB_SAW_40920_40980",_"SAW_ESB_41160_41220")_
x_("ESB_SAW_40920_40980",_"SAW_ADB_41250_41310")_
x_("ESB_SAW_40920_40980",_"SAW_KYA_41310_41380")_
x_("ESB_SAW_40920_40980",_"SAW_AYT_41025_41090")_
x_("ESB_SAW_40920_40980",_"SAW_ASR_41295_41380")_
x_("TZX_SAW_40920_41025",_"SAW_ESB_41160_41220")_
x_("TZX_SAW_40920_41025",_"SAW_ADB_41250_41310")_
x_("TZX_SAW_40920_41025",_"SAW_KYA_41310_41380")_
x_("TZX_SAW_40920_41025",_"SAW_ASR_41295_41380")_
x_("AYT_ESB_40960_41025",_"ESB_ECN_41505_41575")_
x_("AYT_ESB_40960_41025",_"ESB_ADB_41130_41210")_
x_("AYT_ESB_40960_41025",_"ESB_SZF_41300_41360")_
x_("AYT_ESB_40960_41025",_"ESB_MLX_41500_41575")_
x_("AYT_ESB_40960_41025",_"ESB_GNY_41260_41335")_
x_("AYT_ESB_40960_41025",_"ESB_ADA_41280_41340")_
x_("AYT_ESB_40960_41025",_"ESB_HTY_41510_41590")_
x_("AYT_ESB_40960_41025",_"ESB_YEI_41515_41575")_
x_("ESB_MQM_40970_41065",_"MQM_ESB_41100_41195")_
x_("ESB_ECN_40980_41050",_"ECN_HTY_41160_41225")_
x_("ESB_ECN_40980_41050",_"ECN_ESB_41375_41445")_
x_("ESB_ERC_41010_41090",_"ERC_ESB_41125_41205")_
x_("SAW_VAS_41010_41090",_"VAS_SAW_41125_41205")_
x_("SAW_AYT_41025_41090",_"AYT_SAW_41130_41195")_
x_("ESB_SAW_41040_41100",_"SAW_ESB_41160_41220")_
x_("ESB_SAW_41040_41100",_"SAW_ADB_41250_41310")_
x_("ESB_SAW_41040_41100",_"SAW_KYA_41310_41380")_
x_("ESB_SAW_41040_41100",_"SAW_ASR_41295_41380")_
x_("MQM_ESB_41100_41195",_"ESB_ECN_41505_41575")_
x_("MQM_ESB_41100_41195",_"ESB_SZF_41300_41360")_
x_("MQM_ESB_41100_41195",_"ESB_MLX_41500_41575")_
x_("MQM_ESB_41100_41195",_"ESB_GNY_41260_41335")_
x_("MQM_ESB_41100_41195",_"ESB_ADA_41280_41340")_
x_("MQM_ESB_41100_41195",_"ESB_HTY_41510_41590")_
x_("MQM_ESB_41100_41195",_"ESB_YEI_41515_41575")_
x_("ERC_ESB_41125_41205",_"ESB_ECN_41505_41575")_
x_("ERC_ESB_41125_41205",_"ESB_SZF_41300_41360")_
x_("ERC_ESB_41125_41205",_"ESB_MLX_41500_41575")_
x_("ERC_ESB_41125_41205",_"ESB_GNY_41260_41335")_
x_("ERC_ESB_41125_41205",_"ESB_ADA_41280_41340")_
x_("ERC_ESB_41125_41205",_"ESB_HTY_41510_41590")_
x_("ERC_ESB_41125_41205",_"ESB_YEI_41515_41575")_
x_("VAS_SAW_41125_41205",_"SAW_ADB_41250_41310")_
x_("VAS_SAW_41125_41205",_"SAW_KYA_41310_41380")_
x_("VAS_SAW_41125_41205",_"SAW_ASR_41295_41380")_
x_("ESB_ADB_41130_41210",_"ADB_ESB_41245_41320")_
x_("ESB_ADB_41130_41210",_"ADB_SAW_41345_41405")_
x_("AYT_SAW_41130_41195",_"SAW_ADB_41250_41310")_
x_("AYT_SAW_41130_41195",_"SAW_KYA_41310_41380")_
x_("AYT_SAW_41130_41195",_"SAW_ASR_41295_41380")_
x_("SAW_ESB_41160_41220",_"ESB_ECN_41505_41575")_
x_("SAW_ESB_41160_41220",_"ESB_SZF_41300_41360")_
x_("SAW_ESB_41160_41220",_"ESB_MLX_41500_41575")_
x_("SAW_ESB_41160_41220",_"ESB_GNY_41260_41335")_
x_("SAW_ESB_41160_41220",_"ESB_ADA_41280_41340")_
x_("SAW_ESB_41160_41220",_"ESB_HTY_41510_41590")_
x_("SAW_ESB_41160_41220",_"ESB_YEI_41515_41575")_
x_("ECN_HTY_41160_41225",_"HTY_ECN_41265_41330")_
x_("ADB_ESB_41245_41320",_"ESB_ECN_41505_41575")_
x_("ADB_ESB_41245_41320",_"ESB_MLX_41500_41575")_
x_("ADB_ESB_41245_41320",_"ESB_HTY_41510_41590")_
x_("ADB_ESB_41245_41320",_"ESB_YEI_41515_41575")_
x_("SAW_ADB_41250_41310",_"ADB_SAW_41345_41405")_
x_("ESB_GNY_41260_41335",_"GNY_ESB_41370_41450")_
x_("HTY_ECN_41265_41330",_"ECN_ESB_41375_41445")_
x_("ESB_ADA_41280_41340",_"ADA_ESB_41380_41445")_
x_("SAW_ASR_41295_41380",_"ASR_SAW_41415_41505")_
x_("ESB_SZF_41300_41360",_"SZF_ESB_41395_41455")_
x_("SAW_KYA_41310_41380",_"KYA_SAW_41415_41485")_
x_("GNY_ESB_41370_41450",_"ESB_ECN_41505_41575")_
x_("GNY_ESB_41370_41450",_"ESB_MLX_41500_41575")_
x_("GNY_ESB_41370_41450",_"ESB_HTY_41510_41590")_
x_("GNY_ESB_41370_41450",_"ESB_YEI_41515_41575")_
x_("ECN_ESB_41375_41445",_"ESB_ECN_41505_41575")_
x_("ECN_ESB_41375_41445",_"ESB_MLX_41500_41575")_
x_("ECN_ESB_41375_41445",_"ESB_HTY_41510_41590")_
x_("ECN_ESB_41375_41445",_"ESB_YEI_41515_41575")_
x_("ADA_ESB_41380_41445",_"ESB_ECN_41505_41575")_
x_("ADA_ESB_41380_41445",_"ESB_MLX_41500_41575")_
x_("ADA_ESB_41380_41445",_"ESB_HTY_41510_41590")_
x_("ADA_ESB_41380_41445",_"ESB_YEI_41515_41575")_
x_("SZF_ESB_41395_41455",_"ESB_ECN_41505_41575")_
x_("SZF_ESB_41395_41455",_"ESB_MLX_41500_41575")_
x_("SZF_ESB_41395_41455",_"ESB_HTY_41510_41590")_
x_("SZF_ESB_41395_41455",_"ESB_YEI_41515_41575")_
x_("SAW_ADB_40560_40620",_"t")_
x_("ECN_ESB_40560_40630",_"t")_
x_("YEI_ESB_40560_40620",_"t")_
x_("MLX_ESB_40560_40635",_"t")_
x_("HTY_ESB_40560_40635",_"t")_
x_("ADB_SAW_40655_40715",_"t")_
x_("ESB_TZX_40680_40760",_"t")_
x_("ESB_AJI_40690_40785",_"t")_
x_("ESB_BAL_40705_40795",_"t")_
x_("ESB_VAN_40765_40860",_"t")_
x_("SAW_TZX_40785_40885",_"t")_
x_("TZX_ESB_40795_40875",_"t")_
x_("SAW_ESB_40800_40860",_"t")_
x_("AJI_ESB_40820_40925",_"t")_
x_("BAL_ESB_40830_40925",_"t")_
x_("ESB_AYT_40860_40925",_"t")_
x_("VAN_ESB_40895_41000",_"t")_
x_("ESB_SAW_40920_40980",_"t")_
x_("TZX_SAW_40920_41025",_"t")_
x_("AYT_ESB_40960_41025",_"t")_
x_("ESB_MQM_40970_41065",_"t")_
x_("ESB_ECN_40980_41050",_"t")_
x_("ESB_ERC_41010_41090",_"t")_
x_("SAW_VAS_41010_41090",_"t")_
x_("SAW_AYT_41025_41090",_"t")_
x_("ESB_SAW_41040_41100",_"t")_
x_("MQM_ESB_41100_41195",_"t")_
x_("ERC_ESB_41125_41205",_"t")_
x_("VAS_SAW_41125_41205",_"t")_
x_("ESB_ADB_41130_41210",_"t")_
x_("AYT_SAW_41130_41195",_"t")_
x_("SAW_ESB_41160_41220",_"t")_
x_("ECN_HTY_41160_41225",_"t")_
x_("ADB_ESB_41245_41320",_"t")_
x_("SAW_ADB_41250_41310",_"t")_
x_("ESB_GNY_41260_41335",_"t")_
x_("HTY_ECN_41265_41330",_"t")_
x_("ESB_ADA_41280_41340",_"t")_
x_("SAW_ASR_41295_41380",_"t")_
x_("ESB_SZF_41300_41360",_"t")_
x_("SAW_KYA_41310_41380",_"t")_
x_("ADB_SAW_41345_41405",_"t")_
x_("GNY_ESB_41370_41450",_"t")_
x_("ECN_ESB_41375_41445",_"t")_
x_("ADA_ESB_41380_41445",_"t")_
x_("SZF_ESB_41395_41455",_"t")_
x_("ASR_SAW_41415_41505",_"t")_
x_("KYA_SAW_41415_41485",_"t")_
x_("ESB_MLX_41500_41575",_"t")_
x_("ESB_ECN_41505_41575",_"t")_
x_("ESB_HTY_41510_41590",_"t")_
x_("ESB_YEI_41515_41575",_"t")_
End
