minimize
obj: 1 rho_SAW_ESB_32520_32580_ + 1 rho_ESB_GNY_32620_32695_ + 1 rho_ESB_SAW_33480_33540_ + 1 rho_SAW_VAS_33810_33890_ + 1 rho_SAW_ASR_34095_34180_ + 1 rho_SAW_ADB_34800_34860_ + 1 rho_ADB_SAW_34895_34955_ + 1 rho_SAW_NAJ_35030_35170_ + 1 rho_SAW_ADB_35490_35550_ + 1 rho_ADB_SAW_35585_35645_ + 1 rho_SAW_ESB_36300_36360_ + 1 rho_ESB_SAW_36600_36660_ + 1 rho_SAW_AYT_36705_36770_ + 1 rho_SAW_KYA_36990_37060_ + 1 rho_SAW_ESB_37740_37800_ + 1 rho_ESB_VAN_37885_37980_ + 1 rho_ESB_SAW_38160_38220_ + 1 rho_SAW_ESB_38280_38340_ + 1 rho_ESB_GNY_38380_38455_ + 1 rho_ESB_MLX_38620_38695_ + 1 rho_ESB_SAW_39480_39540_ + 1 rho_SAW_AYT_39585_39650_ + 1 rho_SAW_ADB_39810_39870_ + 1 rho_ADB_SAW_39905_39965_ + 1 rho_SAW_ESB_40800_40860_ + 1 rho_ESB_SAW_40920_40980_ + 1 rho_SAW_AYT_41025_41090_ + 1 rho_SAW_ADB_41250_41310_ + 1 rho_ADB_SAW_41345_41405_
subject to
c1_1: 1 y_SAW_ESB_32520_32580_ + 1 y_ESB_GNY_32620_32695_ + 1 y_ESB_SAW_33480_33540_ + 1 y_SAW_VAS_33810_33890_ + 1 y_SAW_ASR_34095_34180_ + 1 y_SAW_ADB_34800_34860_ + 1 y_ADB_SAW_34895_34955_ + 1 y_SAW_NAJ_35030_35170_ + 1 y_SAW_ADB_35490_35550_ + 1 y_ADB_SAW_35585_35645_ + 1 y_SAW_ESB_36300_36360_ + 1 y_ESB_SAW_36600_36660_ + 1 y_SAW_AYT_36705_36770_ + 1 y_SAW_KYA_36990_37060_ + 1 y_SAW_ESB_37740_37800_ + 1 y_ESB_VAN_37885_37980_ + 1 y_ESB_SAW_38160_38220_ + 1 y_SAW_ESB_38280_38340_ + 1 y_ESB_GNY_38380_38455_ + 1 y_ESB_MLX_38620_38695_ + 1 y_ESB_SAW_39480_39540_ + 1 y_SAW_AYT_39585_39650_ + 1 y_SAW_ADB_39810_39870_ + 1 y_ADB_SAW_39905_39965_ + 1 y_SAW_ESB_40800_40860_ + 1 y_ESB_SAW_40920_40980_ + 1 y_SAW_AYT_41025_41090_ + 1 y_SAW_ADB_41250_41310_ + 1 y_ADB_SAW_41345_41405_ <= 1
c3_SAW_ESB_32520_32580_: 1 y_SAW_ESB_32520_32580_ <= 0
c3_ESB_GNY_32620_32695_: 1 y_ESB_GNY_32620_32695_ <= 0
c3_ESB_SAW_33480_33540_: -1 x_copy_("GNY_ESB_32730_32810",_"ESB_SAW_33480_33540")_ + 1 y_ESB_SAW_33480_33540_ <= 0
c3_SAW_VAS_33810_33890_: 1 y_SAW_VAS_33810_33890_ <= 0
c3_SAW_ASR_34095_34180_: 1 y_SAW_ASR_34095_34180_ <= 0
c3_SAW_ADB_34800_34860_: -1 x_copy_("ASR_SAW_34215_34305",_"SAW_ADB_34800_34860")_ + 1 y_SAW_ADB_34800_34860_ <= 0
c3_ADB_SAW_34895_34955_: 1 y_ADB_SAW_34895_34955_ <= 0
c3_SAW_NAJ_35030_35170_: 1 y_SAW_NAJ_35030_35170_ <= 0
c3_SAW_ADB_35490_35550_: 1 y_SAW_ADB_35490_35550_ <= 0
c3_ADB_SAW_35585_35645_: 1 y_ADB_SAW_35585_35645_ <= 0
c3_SAW_ESB_36300_36360_: -1 x_copy_("ADB_SAW_35585_35645",_"SAW_ESB_36300_36360")_ + 1 y_SAW_ESB_36300_36360_ <= 0
c3_ESB_SAW_36600_36660_: 1 y_ESB_SAW_36600_36660_ <= 0
c3_SAW_AYT_36705_36770_: 1 y_SAW_AYT_36705_36770_ <= 0
c3_SAW_KYA_36990_37060_: 1 y_SAW_KYA_36990_37060_ <= 0
c3_SAW_ESB_37740_37800_: -1 x_copy_("KYA_SAW_37095_37165",_"SAW_ESB_37740_37800")_ + 1 y_SAW_ESB_37740_37800_ <= 0
c3_ESB_VAN_37885_37980_: 1 y_ESB_VAN_37885_37980_ <= 0
c3_ESB_SAW_38160_38220_: 1 y_ESB_SAW_38160_38220_ <= 0
c3_SAW_ESB_38280_38340_: 1 y_SAW_ESB_38280_38340_ <= 0
c3_ESB_GNY_38380_38455_: 1 y_ESB_GNY_38380_38455_ <= 0
c3_ESB_MLX_38620_38695_: 1 y_ESB_MLX_38620_38695_ <= 0
c3_ESB_SAW_39480_39540_: 1 y_ESB_SAW_39480_39540_ <= 0
c3_SAW_AYT_39585_39650_: 1 y_SAW_AYT_39585_39650_ <= 0
c3_SAW_ADB_39810_39870_: 1 y_SAW_ADB_39810_39870_ <= 0
c3_ADB_SAW_39905_39965_: 1 y_ADB_SAW_39905_39965_ <= 0
c3_SAW_ESB_40800_40860_: -1 x_copy_("ADB_SAW_39905_39965",_"SAW_ESB_40800_40860")_ + 1 y_SAW_ESB_40800_40860_ <= 0
c3_ESB_SAW_40920_40980_: 1 y_ESB_SAW_40920_40980_ <= 0
c3_SAW_AYT_41025_41090_: 1 y_SAW_AYT_41025_41090_ <= 0
c3_SAW_ADB_41250_41310_: 1 y_SAW_ADB_41250_41310_ <= 0
c3_ADB_SAW_41345_41405_: 1 y_ADB_SAW_41345_41405_ <= 0
c5_("s",_"N128")_: 6000 x_copy_("s",_"N128")_ - 1 u_s_ + 1 u_N128_ <= 6000
c5_("N128",_"SAW_ADB_31920_31980")_: 5940 x_copy_("N128",_"SAW_ADB_31920_31980")_ - 1 u_N128_ + 1 u_SAW_ADB_31920_31980_ <= 6000
c5_("SAW_ADB_31920_31980",_"ADB_SAW_32015_32075")_: 5880 x_copy_("SAW_ADB_31920_31980",_"ADB_SAW_32015_32075")_ - 1 u_SAW_ADB_31920_31980_ + 1 u_ADB_SAW_32015_32075_ <= 5940
c5_("ADB_SAW_32015_32075",_"SAW_TZX_32145_32245")_: 5840 x_copy_("ADB_SAW_32015_32075",_"SAW_TZX_32145_32245")_ - 1 u_ADB_SAW_32015_32075_ + 1 u_SAW_TZX_32145_32245_ <= 5940
c5_("SAW_TZX_32145_32245",_"TZX_SAW_32280_32385")_: 5795 x_copy_("SAW_TZX_32145_32245",_"TZX_SAW_32280_32385")_ - 1 u_SAW_TZX_32145_32245_ + 1 u_TZX_SAW_32280_32385_ <= 5900
c5_("TZX_SAW_32280_32385",_"SAW_ESB_32520_32580")_: 5835 x_copy_("TZX_SAW_32280_32385",_"SAW_ESB_32520_32580")_ - 1 u_TZX_SAW_32280_32385_ + 1 u_SAW_ESB_32520_32580_ <= 5895
c5_("SAW_ESB_32520_32580",_"ESB_GNY_32620_32695")_: 5865 x_copy_("SAW_ESB_32520_32580",_"ESB_GNY_32620_32695")_ - 1 u_SAW_ESB_32520_32580_ + 1 u_ESB_GNY_32620_32695_ <= 5940
c5_("ESB_GNY_32620_32695",_"GNY_ESB_32730_32810")_: 5845 x_copy_("ESB_GNY_32620_32695",_"GNY_ESB_32730_32810")_ - 1 u_ESB_GNY_32620_32695_ + 1 u_GNY_ESB_32730_32810_ <= 5925
c5_("GNY_ESB_32730_32810",_"ESB_SAW_33480_33540")_: 5860 x_copy_("GNY_ESB_32730_32810",_"ESB_SAW_33480_33540")_ - 1 u_GNY_ESB_32730_32810_ + 1 u_ESB_SAW_33480_33540_ <= 5920
c5_("ESB_SAW_33480_33540",_"SAW_VAS_33810_33890")_: 5860 x_copy_("ESB_SAW_33480_33540",_"SAW_VAS_33810_33890")_ - 1 u_ESB_SAW_33480_33540_ + 1 u_SAW_VAS_33810_33890_ <= 5940
c5_("SAW_VAS_33810_33890",_"VAS_SAW_33925_34005")_: 5840 x_copy_("SAW_VAS_33810_33890",_"VAS_SAW_33925_34005")_ - 1 u_SAW_VAS_33810_33890_ + 1 u_VAS_SAW_33925_34005_ <= 5920
c5_("VAS_SAW_33925_34005",_"SAW_ASR_34095_34180")_: 5835 x_copy_("VAS_SAW_33925_34005",_"SAW_ASR_34095_34180")_ - 1 u_VAS_SAW_33925_34005_ + 1 u_SAW_ASR_34095_34180_ <= 5920
c5_("SAW_ASR_34095_34180",_"ASR_SAW_34215_34305")_: 5825 x_copy_("SAW_ASR_34095_34180",_"ASR_SAW_34215_34305")_ - 1 u_SAW_ASR_34095_34180_ + 1 u_ASR_SAW_34215_34305_ <= 5915
c5_("ASR_SAW_34215_34305",_"SAW_ADB_34800_34860")_: 5850 x_copy_("ASR_SAW_34215_34305",_"SAW_ADB_34800_34860")_ - 1 u_ASR_SAW_34215_34305_ + 1 u_SAW_ADB_34800_34860_ <= 5910
c5_("SAW_ADB_34800_34860",_"ADB_SAW_34895_34955")_: 5880 x_copy_("SAW_ADB_34800_34860",_"ADB_SAW_34895_34955")_ - 1 u_SAW_ADB_34800_34860_ + 1 u_ADB_SAW_34895_34955_ <= 5940
c5_("ADB_SAW_34895_34955",_"SAW_NAJ_35030_35170")_: 5800 x_copy_("ADB_SAW_34895_34955",_"SAW_NAJ_35030_35170")_ - 1 u_ADB_SAW_34895_34955_ + 1 u_SAW_NAJ_35030_35170_ <= 5940
c5_("SAW_NAJ_35030_35170",_"NAJ_SAW_35235_35390")_: 5705 x_copy_("SAW_NAJ_35030_35170",_"NAJ_SAW_35235_35390")_ - 1 u_SAW_NAJ_35030_35170_ + 1 u_NAJ_SAW_35235_35390_ <= 5860
c5_("NAJ_SAW_35235_35390",_"SAW_ADB_35490_35550")_: 5785 x_copy_("NAJ_SAW_35235_35390",_"SAW_ADB_35490_35550")_ - 1 u_NAJ_SAW_35235_35390_ + 1 u_SAW_ADB_35490_35550_ <= 5845
c5_("SAW_ADB_35490_35550",_"ADB_SAW_35585_35645")_: 5880 x_copy_("SAW_ADB_35490_35550",_"ADB_SAW_35585_35645")_ - 1 u_SAW_ADB_35490_35550_ + 1 u_ADB_SAW_35585_35645_ <= 5940
c5_("ADB_SAW_35585_35645",_"SAW_ESB_36300_36360")_: 5880 x_copy_("ADB_SAW_35585_35645",_"SAW_ESB_36300_36360")_ - 1 u_ADB_SAW_35585_35645_ + 1 u_SAW_ESB_36300_36360_ <= 5940
c5_("SAW_ESB_36300_36360",_"ESB_SAW_36600_36660")_: 5880 x_copy_("SAW_ESB_36300_36360",_"ESB_SAW_36600_36660")_ - 1 u_SAW_ESB_36300_36360_ + 1 u_ESB_SAW_36600_36660_ <= 5940
c5_("ESB_SAW_36600_36660",_"SAW_AYT_36705_36770")_: 5875 x_copy_("ESB_SAW_36600_36660",_"SAW_AYT_36705_36770")_ - 1 u_ESB_SAW_36600_36660_ + 1 u_SAW_AYT_36705_36770_ <= 5940
c5_("SAW_AYT_36705_36770",_"AYT_SAW_36810_36875")_: 5870 x_copy_("SAW_AYT_36705_36770",_"AYT_SAW_36810_36875")_ - 1 u_SAW_AYT_36705_36770_ + 1 u_AYT_SAW_36810_36875_ <= 5935
c5_("AYT_SAW_36810_36875",_"SAW_KYA_36990_37060")_: 5865 x_copy_("AYT_SAW_36810_36875",_"SAW_KYA_36990_37060")_ - 1 u_AYT_SAW_36810_36875_ + 1 u_SAW_KYA_36990_37060_ <= 5935
c5_("SAW_KYA_36990_37060",_"KYA_SAW_37095_37165")_: 5860 x_copy_("SAW_KYA_36990_37060",_"KYA_SAW_37095_37165")_ - 1 u_SAW_KYA_36990_37060_ + 1 u_KYA_SAW_37095_37165_ <= 5930
c5_("KYA_SAW_37095_37165",_"SAW_ESB_37740_37800")_: 5870 x_copy_("KYA_SAW_37095_37165",_"SAW_ESB_37740_37800")_ - 1 u_KYA_SAW_37095_37165_ + 1 u_SAW_ESB_37740_37800_ <= 5930
c5_("SAW_ESB_37740_37800",_"ESB_VAN_37885_37980")_: 5845 x_copy_("SAW_ESB_37740_37800",_"ESB_VAN_37885_37980")_ - 1 u_SAW_ESB_37740_37800_ + 1 u_ESB_VAN_37885_37980_ <= 5940
c5_("ESB_VAN_37885_37980",_"VAN_ESB_38015_38120")_: 5800 x_copy_("ESB_VAN_37885_37980",_"VAN_ESB_38015_38120")_ - 1 u_ESB_VAN_37885_37980_ + 1 u_VAN_ESB_38015_38120_ <= 5905
c5_("VAN_ESB_38015_38120",_"ESB_SAW_38160_38220")_: 5835 x_copy_("VAN_ESB_38015_38120",_"ESB_SAW_38160_38220")_ - 1 u_VAN_ESB_38015_38120_ + 1 u_ESB_SAW_38160_38220_ <= 5895
c5_("ESB_SAW_38160_38220",_"SAW_ESB_38280_38340")_: 5880 x_copy_("ESB_SAW_38160_38220",_"SAW_ESB_38280_38340")_ - 1 u_ESB_SAW_38160_38220_ + 1 u_SAW_ESB_38280_38340_ <= 5940
c5_("SAW_ESB_38280_38340",_"ESB_GNY_38380_38455")_: 5865 x_copy_("SAW_ESB_38280_38340",_"ESB_GNY_38380_38455")_ - 1 u_SAW_ESB_38280_38340_ + 1 u_ESB_GNY_38380_38455_ <= 5940
c5_("ESB_GNY_38380_38455",_"GNY_ESB_38490_38570")_: 5845 x_copy_("ESB_GNY_38380_38455",_"GNY_ESB_38490_38570")_ - 1 u_ESB_GNY_38380_38455_ + 1 u_GNY_ESB_38490_38570_ <= 5925
c5_("GNY_ESB_38490_38570",_"ESB_MLX_38620_38695")_: 5845 x_copy_("GNY_ESB_38490_38570",_"ESB_MLX_38620_38695")_ - 1 u_GNY_ESB_38490_38570_ + 1 u_ESB_MLX_38620_38695_ <= 5920
c5_("ESB_MLX_38620_38695",_"MLX_ESB_39120_39195")_: 5850 x_copy_("ESB_MLX_38620_38695",_"MLX_ESB_39120_39195")_ - 1 u_ESB_MLX_38620_38695_ + 1 u_MLX_ESB_39120_39195_ <= 5925
c5_("MLX_ESB_39120_39195",_"ESB_SAW_39480_39540")_: 5865 x_copy_("MLX_ESB_39120_39195",_"ESB_SAW_39480_39540")_ - 1 u_MLX_ESB_39120_39195_ + 1 u_ESB_SAW_39480_39540_ <= 5925
c5_("ESB_SAW_39480_39540",_"SAW_AYT_39585_39650")_: 5875 x_copy_("ESB_SAW_39480_39540",_"SAW_AYT_39585_39650")_ - 1 u_ESB_SAW_39480_39540_ + 1 u_SAW_AYT_39585_39650_ <= 5940
c5_("SAW_AYT_39585_39650",_"AYT_SAW_39690_39755")_: 5870 x_copy_("SAW_AYT_39585_39650",_"AYT_SAW_39690_39755")_ - 1 u_SAW_AYT_39585_39650_ + 1 u_AYT_SAW_39690_39755_ <= 5935
c5_("AYT_SAW_39690_39755",_"SAW_ADB_39810_39870")_: 5875 x_copy_("AYT_SAW_39690_39755",_"SAW_ADB_39810_39870")_ - 1 u_AYT_SAW_39690_39755_ + 1 u_SAW_ADB_39810_39870_ <= 5935
c5_("SAW_ADB_39810_39870",_"ADB_SAW_39905_39965")_: 5880 x_copy_("SAW_ADB_39810_39870",_"ADB_SAW_39905_39965")_ - 1 u_SAW_ADB_39810_39870_ + 1 u_ADB_SAW_39905_39965_ <= 5940
c5_("ADB_SAW_39905_39965",_"SAW_ESB_40800_40860")_: 5880 x_copy_("ADB_SAW_39905_39965",_"SAW_ESB_40800_40860")_ - 1 u_ADB_SAW_39905_39965_ + 1 u_SAW_ESB_40800_40860_ <= 5940
c5_("SAW_ESB_40800_40860",_"ESB_SAW_40920_40980")_: 5880 x_copy_("SAW_ESB_40800_40860",_"ESB_SAW_40920_40980")_ - 1 u_SAW_ESB_40800_40860_ + 1 u_ESB_SAW_40920_40980_ <= 5940
c5_("ESB_SAW_40920_40980",_"SAW_AYT_41025_41090")_: 5875 x_copy_("ESB_SAW_40920_40980",_"SAW_AYT_41025_41090")_ - 1 u_ESB_SAW_40920_40980_ + 1 u_SAW_AYT_41025_41090_ <= 5940
c5_("SAW_AYT_41025_41090",_"AYT_SAW_41130_41195")_: 5870 x_copy_("SAW_AYT_41025_41090",_"AYT_SAW_41130_41195")_ - 1 u_SAW_AYT_41025_41090_ + 1 u_AYT_SAW_41130_41195_ <= 5935
c5_("AYT_SAW_41130_41195",_"SAW_ADB_41250_41310")_: 5875 x_copy_("AYT_SAW_41130_41195",_"SAW_ADB_41250_41310")_ - 1 u_AYT_SAW_41130_41195_ + 1 u_SAW_ADB_41250_41310_ <= 5935
c5_("SAW_ADB_41250_41310",_"ADB_SAW_41345_41405")_: 5880 x_copy_("SAW_ADB_41250_41310",_"ADB_SAW_41345_41405")_ - 1 u_SAW_ADB_41250_41310_ + 1 u_ADB_SAW_41345_41405_ <= 5940
c6_SAW_ESB_32520_32580_: 5940 y_SAW_ESB_32520_32580_ + 1 u_SAW_ESB_32520_32580_ <= 6000
c6_ESB_GNY_32620_32695_: 5925 y_ESB_GNY_32620_32695_ + 1 u_ESB_GNY_32620_32695_ <= 6000
c6_ESB_SAW_33480_33540_: 5940 y_ESB_SAW_33480_33540_ + 1 u_ESB_SAW_33480_33540_ <= 6000
c6_SAW_VAS_33810_33890_: 5920 y_SAW_VAS_33810_33890_ + 1 u_SAW_VAS_33810_33890_ <= 6000
c6_SAW_ASR_34095_34180_: 5915 y_SAW_ASR_34095_34180_ + 1 u_SAW_ASR_34095_34180_ <= 6000
c6_SAW_ADB_34800_34860_: 5940 y_SAW_ADB_34800_34860_ + 1 u_SAW_ADB_34800_34860_ <= 6000
c6_ADB_SAW_34895_34955_: 5940 y_ADB_SAW_34895_34955_ + 1 u_ADB_SAW_34895_34955_ <= 6000
c6_SAW_NAJ_35030_35170_: 5860 y_SAW_NAJ_35030_35170_ + 1 u_SAW_NAJ_35030_35170_ <= 6000
c6_SAW_ADB_35490_35550_: 5940 y_SAW_ADB_35490_35550_ + 1 u_SAW_ADB_35490_35550_ <= 6000
c6_ADB_SAW_35585_35645_: 5940 y_ADB_SAW_35585_35645_ + 1 u_ADB_SAW_35585_35645_ <= 6000
c6_SAW_ESB_36300_36360_: 5940 y_SAW_ESB_36300_36360_ + 1 u_SAW_ESB_36300_36360_ <= 6000
c6_ESB_SAW_36600_36660_: 5940 y_ESB_SAW_36600_36660_ + 1 u_ESB_SAW_36600_36660_ <= 6000
c6_SAW_AYT_36705_36770_: 5935 y_SAW_AYT_36705_36770_ + 1 u_SAW_AYT_36705_36770_ <= 6000
c6_SAW_KYA_36990_37060_: 5930 y_SAW_KYA_36990_37060_ + 1 u_SAW_KYA_36990_37060_ <= 6000
c6_SAW_ESB_37740_37800_: 5940 y_SAW_ESB_37740_37800_ + 1 u_SAW_ESB_37740_37800_ <= 6000
c6_ESB_VAN_37885_37980_: 5905 y_ESB_VAN_37885_37980_ + 1 u_ESB_VAN_37885_37980_ <= 6000
c6_ESB_SAW_38160_38220_: 5940 y_ESB_SAW_38160_38220_ + 1 u_ESB_SAW_38160_38220_ <= 6000
c6_SAW_ESB_38280_38340_: 5940 y_SAW_ESB_38280_38340_ + 1 u_SAW_ESB_38280_38340_ <= 6000
c6_ESB_GNY_38380_38455_: 5925 y_ESB_GNY_38380_38455_ + 1 u_ESB_GNY_38380_38455_ <= 6000
c6_ESB_MLX_38620_38695_: 5925 y_ESB_MLX_38620_38695_ + 1 u_ESB_MLX_38620_38695_ <= 6000
c6_ESB_SAW_39480_39540_: 5940 y_ESB_SAW_39480_39540_ + 1 u_ESB_SAW_39480_39540_ <= 6000
c6_SAW_AYT_39585_39650_: 5935 y_SAW_AYT_39585_39650_ + 1 u_SAW_AYT_39585_39650_ <= 6000
c6_SAW_ADB_39810_39870_: 5940 y_SAW_ADB_39810_39870_ + 1 u_SAW_ADB_39810_39870_ <= 6000
c6_ADB_SAW_39905_39965_: 5940 y_ADB_SAW_39905_39965_ + 1 u_ADB_SAW_39905_39965_ <= 6000
c6_SAW_ESB_40800_40860_: 5940 y_SAW_ESB_40800_40860_ + 1 u_SAW_ESB_40800_40860_ <= 6000
c6_ESB_SAW_40920_40980_: 5940 y_ESB_SAW_40920_40980_ + 1 u_ESB_SAW_40920_40980_ <= 6000
c6_SAW_AYT_41025_41090_: 5935 y_SAW_AYT_41025_41090_ + 1 u_SAW_AYT_41025_41090_ <= 6000
c6_SAW_ADB_41250_41310_: 5940 y_SAW_ADB_41250_41310_ + 1 u_SAW_ADB_41250_41310_ <= 6000
c6_ADB_SAW_41345_41405_: 5940 y_ADB_SAW_41345_41405_ + 1 u_ADB_SAW_41345_41405_ <= 6000
c4_("GNY_ESB_32730_32810",_"ESB_SAW_33480_33540")_: -6000 x_copy_("GNY_ESB_32730_32810",_"ESB_SAW_33480_33540")_ - 5920 y_ESB_SAW_33480_33540_ + 1 u_GNY_ESB_32730_32810_ + 1 rho_ESB_SAW_33480_33540_ >= -5920
c4_("ASR_SAW_34215_34305",_"SAW_ADB_34800_34860")_: -6000 x_copy_("ASR_SAW_34215_34305",_"SAW_ADB_34800_34860")_ - 5910 y_SAW_ADB_34800_34860_ + 1 u_ASR_SAW_34215_34305_ + 1 rho_SAW_ADB_34800_34860_ >= -5910
c4_("ADB_SAW_35585_35645",_"SAW_ESB_36300_36360")_: -6000 x_copy_("ADB_SAW_35585_35645",_"SAW_ESB_36300_36360")_ - 5940 y_SAW_ESB_36300_36360_ + 1 u_ADB_SAW_35585_35645_ + 1 rho_SAW_ESB_36300_36360_ >= -5940
c4_("KYA_SAW_37095_37165",_"SAW_ESB_37740_37800")_: -6000 x_copy_("KYA_SAW_37095_37165",_"SAW_ESB_37740_37800")_ - 5930 y_SAW_ESB_37740_37800_ + 1 u_KYA_SAW_37095_37165_ + 1 rho_SAW_ESB_37740_37800_ >= -5930
c4_("ADB_SAW_39905_39965",_"SAW_ESB_40800_40860")_: -6000 x_copy_("ADB_SAW_39905_39965",_"SAW_ESB_40800_40860")_ - 5940 y_SAW_ESB_40800_40860_ + 1 u_ADB_SAW_39905_39965_ + 1 rho_SAW_ESB_40800_40860_ >= -5940
c7_("s",_"N128")_: -6000 x_copy_("s",_"N128")_ - 1 u_s_ + 1 u_N128_ >= -6000
c7_("N128",_"SAW_ADB_31920_31980")_: -6000 x_copy_("N128",_"SAW_ADB_31920_31980")_ - 1 u_N128_ + 1 u_SAW_ADB_31920_31980_ >= -5940
c7_("SAW_ADB_31920_31980",_"ADB_SAW_32015_32075")_: -6000 x_copy_("SAW_ADB_31920_31980",_"ADB_SAW_32015_32075")_ - 1 u_SAW_ADB_31920_31980_ + 1 u_ADB_SAW_32015_32075_ >= -5940
c7_("ADB_SAW_32015_32075",_"SAW_TZX_32145_32245")_: -6000 x_copy_("ADB_SAW_32015_32075",_"SAW_TZX_32145_32245")_ - 1 u_ADB_SAW_32015_32075_ + 1 u_SAW_TZX_32145_32245_ >= -5900
c7_("SAW_TZX_32145_32245",_"TZX_SAW_32280_32385")_: -6000 x_copy_("SAW_TZX_32145_32245",_"TZX_SAW_32280_32385")_ - 1 u_SAW_TZX_32145_32245_ + 1 u_TZX_SAW_32280_32385_ >= -5895
c7_("TZX_SAW_32280_32385",_"SAW_ESB_32520_32580")_: -6000 x_copy_("TZX_SAW_32280_32385",_"SAW_ESB_32520_32580")_ - 1 u_TZX_SAW_32280_32385_ + 1 u_SAW_ESB_32520_32580_ >= -5940
c7_("SAW_ESB_32520_32580",_"ESB_GNY_32620_32695")_: -6000 x_copy_("SAW_ESB_32520_32580",_"ESB_GNY_32620_32695")_ - 1 u_SAW_ESB_32520_32580_ + 1 u_ESB_GNY_32620_32695_ >= -5925
c7_("ESB_GNY_32620_32695",_"GNY_ESB_32730_32810")_: -6000 x_copy_("ESB_GNY_32620_32695",_"GNY_ESB_32730_32810")_ - 1 u_ESB_GNY_32620_32695_ + 1 u_GNY_ESB_32730_32810_ >= -5920
c7_("ESB_SAW_33480_33540",_"SAW_VAS_33810_33890")_: -6000 x_copy_("ESB_SAW_33480_33540",_"SAW_VAS_33810_33890")_ - 1 u_ESB_SAW_33480_33540_ + 1 u_SAW_VAS_33810_33890_ >= -5920
c7_("SAW_VAS_33810_33890",_"VAS_SAW_33925_34005")_: -6000 x_copy_("SAW_VAS_33810_33890",_"VAS_SAW_33925_34005")_ - 1 u_SAW_VAS_33810_33890_ + 1 u_VAS_SAW_33925_34005_ >= -5920
c7_("VAS_SAW_33925_34005",_"SAW_ASR_34095_34180")_: -6000 x_copy_("VAS_SAW_33925_34005",_"SAW_ASR_34095_34180")_ - 1 u_VAS_SAW_33925_34005_ + 1 u_SAW_ASR_34095_34180_ >= -5915
c7_("SAW_ASR_34095_34180",_"ASR_SAW_34215_34305")_: -6000 x_copy_("SAW_ASR_34095_34180",_"ASR_SAW_34215_34305")_ - 1 u_SAW_ASR_34095_34180_ + 1 u_ASR_SAW_34215_34305_ >= -5910
c7_("SAW_ADB_34800_34860",_"ADB_SAW_34895_34955")_: -6000 x_copy_("SAW_ADB_34800_34860",_"ADB_SAW_34895_34955")_ - 1 u_SAW_ADB_34800_34860_ + 1 u_ADB_SAW_34895_34955_ >= -5940
c7_("ADB_SAW_34895_34955",_"SAW_NAJ_35030_35170")_: -6000 x_copy_("ADB_SAW_34895_34955",_"SAW_NAJ_35030_35170")_ - 1 u_ADB_SAW_34895_34955_ + 1 u_SAW_NAJ_35030_35170_ >= -5860
c7_("SAW_NAJ_35030_35170",_"NAJ_SAW_35235_35390")_: -6000 x_copy_("SAW_NAJ_35030_35170",_"NAJ_SAW_35235_35390")_ - 1 u_SAW_NAJ_35030_35170_ + 1 u_NAJ_SAW_35235_35390_ >= -5845
c7_("NAJ_SAW_35235_35390",_"SAW_ADB_35490_35550")_: -6000 x_copy_("NAJ_SAW_35235_35390",_"SAW_ADB_35490_35550")_ - 1 u_NAJ_SAW_35235_35390_ + 1 u_SAW_ADB_35490_35550_ >= -5940
c7_("SAW_ADB_35490_35550",_"ADB_SAW_35585_35645")_: -6000 x_copy_("SAW_ADB_35490_35550",_"ADB_SAW_35585_35645")_ - 1 u_SAW_ADB_35490_35550_ + 1 u_ADB_SAW_35585_35645_ >= -5940
c7_("SAW_ESB_36300_36360",_"ESB_SAW_36600_36660")_: -6000 x_copy_("SAW_ESB_36300_36360",_"ESB_SAW_36600_36660")_ - 1 u_SAW_ESB_36300_36360_ + 1 u_ESB_SAW_36600_36660_ >= -5940
c7_("ESB_SAW_36600_36660",_"SAW_AYT_36705_36770")_: -6000 x_copy_("ESB_SAW_36600_36660",_"SAW_AYT_36705_36770")_ - 1 u_ESB_SAW_36600_36660_ + 1 u_SAW_AYT_36705_36770_ >= -5935
c7_("SAW_AYT_36705_36770",_"AYT_SAW_36810_36875")_: -6000 x_copy_("SAW_AYT_36705_36770",_"AYT_SAW_36810_36875")_ - 1 u_SAW_AYT_36705_36770_ + 1 u_AYT_SAW_36810_36875_ >= -5935
c7_("AYT_SAW_36810_36875",_"SAW_KYA_36990_37060")_: -6000 x_copy_("AYT_SAW_36810_36875",_"SAW_KYA_36990_37060")_ - 1 u_AYT_SAW_36810_36875_ + 1 u_SAW_KYA_36990_37060_ >= -5930
c7_("SAW_KYA_36990_37060",_"KYA_SAW_37095_37165")_: -6000 x_copy_("SAW_KYA_36990_37060",_"KYA_SAW_37095_37165")_ - 1 u_SAW_KYA_36990_37060_ + 1 u_KYA_SAW_37095_37165_ >= -5930
c7_("SAW_ESB_37740_37800",_"ESB_VAN_37885_37980")_: -6000 x_copy_("SAW_ESB_37740_37800",_"ESB_VAN_37885_37980")_ - 1 u_SAW_ESB_37740_37800_ + 1 u_ESB_VAN_37885_37980_ >= -5905
c7_("ESB_VAN_37885_37980",_"VAN_ESB_38015_38120")_: -6000 x_copy_("ESB_VAN_37885_37980",_"VAN_ESB_38015_38120")_ - 1 u_ESB_VAN_37885_37980_ + 1 u_VAN_ESB_38015_38120_ >= -5895
c7_("VAN_ESB_38015_38120",_"ESB_SAW_38160_38220")_: -6000 x_copy_("VAN_ESB_38015_38120",_"ESB_SAW_38160_38220")_ - 1 u_VAN_ESB_38015_38120_ + 1 u_ESB_SAW_38160_38220_ >= -5940
c7_("ESB_SAW_38160_38220",_"SAW_ESB_38280_38340")_: -6000 x_copy_("ESB_SAW_38160_38220",_"SAW_ESB_38280_38340")_ - 1 u_ESB_SAW_38160_38220_ + 1 u_SAW_ESB_38280_38340_ >= -5940
c7_("SAW_ESB_38280_38340",_"ESB_GNY_38380_38455")_: -6000 x_copy_("SAW_ESB_38280_38340",_"ESB_GNY_38380_38455")_ - 1 u_SAW_ESB_38280_38340_ + 1 u_ESB_GNY_38380_38455_ >= -5925
c7_("ESB_GNY_38380_38455",_"GNY_ESB_38490_38570")_: -6000 x_copy_("ESB_GNY_38380_38455",_"GNY_ESB_38490_38570")_ - 1 u_ESB_GNY_38380_38455_ + 1 u_GNY_ESB_38490_38570_ >= -5920
c7_("GNY_ESB_38490_38570",_"ESB_MLX_38620_38695")_: -6000 x_copy_("GNY_ESB_38490_38570",_"ESB_MLX_38620_38695")_ - 1 u_GNY_ESB_38490_38570_ + 1 u_ESB_MLX_38620_38695_ >= -5925
c7_("ESB_MLX_38620_38695",_"MLX_ESB_39120_39195")_: -6000 x_copy_("ESB_MLX_38620_38695",_"MLX_ESB_39120_39195")_ - 1 u_ESB_MLX_38620_38695_ + 1 u_MLX_ESB_39120_39195_ >= -5925
c7_("MLX_ESB_39120_39195",_"ESB_SAW_39480_39540")_: -6000 x_copy_("MLX_ESB_39120_39195",_"ESB_SAW_39480_39540")_ - 1 u_MLX_ESB_39120_39195_ + 1 u_ESB_SAW_39480_39540_ >= -5940
c7_("ESB_SAW_39480_39540",_"SAW_AYT_39585_39650")_: -6000 x_copy_("ESB_SAW_39480_39540",_"SAW_AYT_39585_39650")_ - 1 u_ESB_SAW_39480_39540_ + 1 u_SAW_AYT_39585_39650_ >= -5935
c7_("SAW_AYT_39585_39650",_"AYT_SAW_39690_39755")_: -6000 x_copy_("SAW_AYT_39585_39650",_"AYT_SAW_39690_39755")_ - 1 u_SAW_AYT_39585_39650_ + 1 u_AYT_SAW_39690_39755_ >= -5935
c7_("AYT_SAW_39690_39755",_"SAW_ADB_39810_39870")_: -6000 x_copy_("AYT_SAW_39690_39755",_"SAW_ADB_39810_39870")_ - 1 u_AYT_SAW_39690_39755_ + 1 u_SAW_ADB_39810_39870_ >= -5940
c7_("SAW_ADB_39810_39870",_"ADB_SAW_39905_39965")_: -6000 x_copy_("SAW_ADB_39810_39870",_"ADB_SAW_39905_39965")_ - 1 u_SAW_ADB_39810_39870_ + 1 u_ADB_SAW_39905_39965_ >= -5940
c7_("SAW_ESB_40800_40860",_"ESB_SAW_40920_40980")_: -6000 x_copy_("SAW_ESB_40800_40860",_"ESB_SAW_40920_40980")_ - 1 u_SAW_ESB_40800_40860_ + 1 u_ESB_SAW_40920_40980_ >= -5940
c7_("ESB_SAW_40920_40980",_"SAW_AYT_41025_41090")_: -6000 x_copy_("ESB_SAW_40920_40980",_"SAW_AYT_41025_41090")_ - 1 u_ESB_SAW_40920_40980_ + 1 u_SAW_AYT_41025_41090_ >= -5935
c7_("SAW_AYT_41025_41090",_"AYT_SAW_41130_41195")_: -6000 x_copy_("SAW_AYT_41025_41090",_"AYT_SAW_41130_41195")_ - 1 u_SAW_AYT_41025_41090_ + 1 u_AYT_SAW_41130_41195_ >= -5935
c7_("AYT_SAW_41130_41195",_"SAW_ADB_41250_41310")_: -6000 x_copy_("AYT_SAW_41130_41195",_"SAW_ADB_41250_41310")_ - 1 u_AYT_SAW_41130_41195_ + 1 u_SAW_ADB_41250_41310_ >= -5940
c7_("SAW_ADB_41250_41310",_"ADB_SAW_41345_41405")_: -6000 x_copy_("SAW_ADB_41250_41310",_"ADB_SAW_41345_41405")_ - 1 u_SAW_ADB_41250_41310_ + 1 u_ADB_SAW_41345_41405_ >= -5940
c8_("GNY_ESB_32730_32810",_"ESB_SAW_33480_33540")_: -6000 x_copy_("GNY_ESB_32730_32810",_"ESB_SAW_33480_33540")_ + 6000 y_ESB_SAW_33480_33540_ - 1 u_GNY_ESB_32730_32810_ + 1 u_ESB_SAW_33480_33540_ >= -5940
c8_("ASR_SAW_34215_34305",_"SAW_ADB_34800_34860")_: -6000 x_copy_("ASR_SAW_34215_34305",_"SAW_ADB_34800_34860")_ + 6000 y_SAW_ADB_34800_34860_ - 1 u_ASR_SAW_34215_34305_ + 1 u_SAW_ADB_34800_34860_ >= -5940
c8_("ADB_SAW_35585_35645",_"SAW_ESB_36300_36360")_: -6000 x_copy_("ADB_SAW_35585_35645",_"SAW_ESB_36300_36360")_ + 6000 y_SAW_ESB_36300_36360_ - 1 u_ADB_SAW_35585_35645_ + 1 u_SAW_ESB_36300_36360_ >= -5940
c8_("KYA_SAW_37095_37165",_"SAW_ESB_37740_37800")_: -6000 x_copy_("KYA_SAW_37095_37165",_"SAW_ESB_37740_37800")_ + 6000 y_SAW_ESB_37740_37800_ - 1 u_KYA_SAW_37095_37165_ + 1 u_SAW_ESB_37740_37800_ >= -5940
c8_("ADB_SAW_39905_39965",_"SAW_ESB_40800_40860")_: -6000 x_copy_("ADB_SAW_39905_39965",_"SAW_ESB_40800_40860")_ + 6000 y_SAW_ESB_40800_40860_ - 1 u_ADB_SAW_39905_39965_ + 1 u_SAW_ESB_40800_40860_ >= -5940
c1: 1 u_s_ = 0
c2: 1 u_N128_ = 0
Bounds
x_copy_("s",_"N128")_ = 1
x_copy_("N128",_"SAW_ADB_31920_31980")_ = 1
x_copy_("SAW_ADB_31920_31980",_"ADB_SAW_32015_32075")_ = 1
x_copy_("ADB_SAW_32015_32075",_"SAW_TZX_32145_32245")_ = 1
x_copy_("SAW_TZX_32145_32245",_"TZX_SAW_32280_32385")_ = 1
x_copy_("TZX_SAW_32280_32385",_"SAW_ESB_32520_32580")_ = 1
x_copy_("SAW_ESB_32520_32580",_"ESB_GNY_32620_32695")_ = 1
x_copy_("ESB_GNY_32620_32695",_"GNY_ESB_32730_32810")_ = 1
x_copy_("GNY_ESB_32730_32810",_"ESB_SAW_33480_33540")_ = 1
x_copy_("ESB_SAW_33480_33540",_"SAW_VAS_33810_33890")_ = 1
x_copy_("SAW_VAS_33810_33890",_"VAS_SAW_33925_34005")_ = 1
x_copy_("VAS_SAW_33925_34005",_"SAW_ASR_34095_34180")_ = 1
x_copy_("SAW_ASR_34095_34180",_"ASR_SAW_34215_34305")_ = 1
x_copy_("ASR_SAW_34215_34305",_"SAW_ADB_34800_34860")_ = 1
x_copy_("SAW_ADB_34800_34860",_"ADB_SAW_34895_34955")_ = 1
x_copy_("ADB_SAW_34895_34955",_"SAW_NAJ_35030_35170")_ = 1
x_copy_("SAW_NAJ_35030_35170",_"NAJ_SAW_35235_35390")_ = 1
x_copy_("NAJ_SAW_35235_35390",_"SAW_ADB_35490_35550")_ = 1
x_copy_("SAW_ADB_35490_35550",_"ADB_SAW_35585_35645")_ = 1
x_copy_("ADB_SAW_35585_35645",_"SAW_ESB_36300_36360")_ = 1
x_copy_("SAW_ESB_36300_36360",_"ESB_SAW_36600_36660")_ = 1
x_copy_("ESB_SAW_36600_36660",_"SAW_AYT_36705_36770")_ = 1
x_copy_("SAW_AYT_36705_36770",_"AYT_SAW_36810_36875")_ = 1
x_copy_("AYT_SAW_36810_36875",_"SAW_KYA_36990_37060")_ = 1
x_copy_("SAW_KYA_36990_37060",_"KYA_SAW_37095_37165")_ = 1
x_copy_("KYA_SAW_37095_37165",_"SAW_ESB_37740_37800")_ = 1
x_copy_("SAW_ESB_37740_37800",_"ESB_VAN_37885_37980")_ = 1
x_copy_("ESB_VAN_37885_37980",_"VAN_ESB_38015_38120")_ = 1
x_copy_("VAN_ESB_38015_38120",_"ESB_SAW_38160_38220")_ = 1
x_copy_("ESB_SAW_38160_38220",_"SAW_ESB_38280_38340")_ = 1
x_copy_("SAW_ESB_38280_38340",_"ESB_GNY_38380_38455")_ = 1
x_copy_("ESB_GNY_38380_38455",_"GNY_ESB_38490_38570")_ = 1
x_copy_("GNY_ESB_38490_38570",_"ESB_MLX_38620_38695")_ = 1
x_copy_("ESB_MLX_38620_38695",_"MLX_ESB_39120_39195")_ = 1
x_copy_("MLX_ESB_39120_39195",_"ESB_SAW_39480_39540")_ = 1
x_copy_("ESB_SAW_39480_39540",_"SAW_AYT_39585_39650")_ = 1
x_copy_("SAW_AYT_39585_39650",_"AYT_SAW_39690_39755")_ = 1
x_copy_("AYT_SAW_39690_39755",_"SAW_ADB_39810_39870")_ = 1
x_copy_("SAW_ADB_39810_39870",_"ADB_SAW_39905_39965")_ = 1
x_copy_("ADB_SAW_39905_39965",_"SAW_ESB_40800_40860")_ = 1
x_copy_("SAW_ESB_40800_40860",_"ESB_SAW_40920_40980")_ = 1
x_copy_("ESB_SAW_40920_40980",_"SAW_AYT_41025_41090")_ = 1
x_copy_("SAW_AYT_41025_41090",_"AYT_SAW_41130_41195")_ = 1
x_copy_("AYT_SAW_41130_41195",_"SAW_ADB_41250_41310")_ = 1
x_copy_("SAW_ADB_41250_41310",_"ADB_SAW_41345_41405")_ = 1
x_copy_("ADB_SAW_41345_41405",_"t")_ = 1
0 <= u_s_ <= 6000
0 <= u_N128_ <= 6000
60 <= u_SAW_ADB_31920_31980_ <= 6000
60 <= u_ADB_SAW_32015_32075_ <= 6000
100 <= u_SAW_TZX_32145_32245_ <= 6000
105 <= u_TZX_SAW_32280_32385_ <= 6000
60 <= u_SAW_ESB_32520_32580_ <= 6000
75 <= u_ESB_GNY_32620_32695_ <= 6000
80 <= u_GNY_ESB_32730_32810_ <= 6000
60 <= u_ESB_SAW_33480_33540_ <= 6000
80 <= u_SAW_VAS_33810_33890_ <= 6000
80 <= u_VAS_SAW_33925_34005_ <= 6000
85 <= u_SAW_ASR_34095_34180_ <= 6000
90 <= u_ASR_SAW_34215_34305_ <= 6000
60 <= u_SAW_ADB_34800_34860_ <= 6000
60 <= u_ADB_SAW_34895_34955_ <= 6000
140 <= u_SAW_NAJ_35030_35170_ <= 6000
155 <= u_NAJ_SAW_35235_35390_ <= 6000
60 <= u_SAW_ADB_35490_35550_ <= 6000
60 <= u_ADB_SAW_35585_35645_ <= 6000
60 <= u_SAW_ESB_36300_36360_ <= 6000
60 <= u_ESB_SAW_36600_36660_ <= 6000
65 <= u_SAW_AYT_36705_36770_ <= 6000
65 <= u_AYT_SAW_36810_36875_ <= 6000
70 <= u_SAW_KYA_36990_37060_ <= 6000
70 <= u_KYA_SAW_37095_37165_ <= 6000
60 <= u_SAW_ESB_37740_37800_ <= 6000
95 <= u_ESB_VAN_37885_37980_ <= 6000
105 <= u_VAN_ESB_38015_38120_ <= 6000
60 <= u_ESB_SAW_38160_38220_ <= 6000
60 <= u_SAW_ESB_38280_38340_ <= 6000
75 <= u_ESB_GNY_38380_38455_ <= 6000
80 <= u_GNY_ESB_38490_38570_ <= 6000
75 <= u_ESB_MLX_38620_38695_ <= 6000
75 <= u_MLX_ESB_39120_39195_ <= 6000
60 <= u_ESB_SAW_39480_39540_ <= 6000
65 <= u_SAW_AYT_39585_39650_ <= 6000
65 <= u_AYT_SAW_39690_39755_ <= 6000
60 <= u_SAW_ADB_39810_39870_ <= 6000
60 <= u_ADB_SAW_39905_39965_ <= 6000
60 <= u_SAW_ESB_40800_40860_ <= 6000
60 <= u_ESB_SAW_40920_40980_ <= 6000
65 <= u_SAW_AYT_41025_41090_ <= 6000
65 <= u_AYT_SAW_41130_41195_ <= 6000
60 <= u_SAW_ADB_41250_41310_ <= 6000
60 <= u_ADB_SAW_41345_41405_ <= 6000
0 <= u_t_ <= 6000
rho_SAW_ESB_32520_32580_ >= 0
rho_ESB_GNY_32620_32695_ >= 0
rho_ESB_SAW_33480_33540_ >= 0
rho_SAW_VAS_33810_33890_ >= 0
rho_SAW_ASR_34095_34180_ >= 0
rho_SAW_ADB_34800_34860_ >= 0
rho_ADB_SAW_34895_34955_ >= 0
rho_SAW_NAJ_35030_35170_ >= 0
rho_SAW_ADB_35490_35550_ >= 0
rho_ADB_SAW_35585_35645_ >= 0
rho_SAW_ESB_36300_36360_ >= 0
rho_ESB_SAW_36600_36660_ >= 0
rho_SAW_AYT_36705_36770_ >= 0
rho_SAW_KYA_36990_37060_ >= 0
rho_SAW_ESB_37740_37800_ >= 0
rho_ESB_VAN_37885_37980_ >= 0
rho_ESB_SAW_38160_38220_ >= 0
rho_SAW_ESB_38280_38340_ >= 0
rho_ESB_GNY_38380_38455_ >= 0
rho_ESB_MLX_38620_38695_ >= 0
rho_ESB_SAW_39480_39540_ >= 0
rho_SAW_AYT_39585_39650_ >= 0
rho_SAW_ADB_39810_39870_ >= 0
rho_ADB_SAW_39905_39965_ >= 0
rho_SAW_ESB_40800_40860_ >= 0
rho_ESB_SAW_40920_40980_ >= 0
rho_SAW_AYT_41025_41090_ >= 0
rho_SAW_ADB_41250_41310_ >= 0
rho_ADB_SAW_41345_41405_ >= 0
Binary
y_SAW_ESB_32520_32580_
y_ESB_GNY_32620_32695_
y_ESB_SAW_33480_33540_
y_SAW_VAS_33810_33890_
y_SAW_ASR_34095_34180_
y_SAW_ADB_34800_34860_
y_ADB_SAW_34895_34955_
y_SAW_NAJ_35030_35170_
y_SAW_ADB_35490_35550_
y_ADB_SAW_35585_35645_
y_SAW_ESB_36300_36360_
y_ESB_SAW_36600_36660_
y_SAW_AYT_36705_36770_
y_SAW_KYA_36990_37060_
y_SAW_ESB_37740_37800_
y_ESB_VAN_37885_37980_
y_ESB_SAW_38160_38220_
y_SAW_ESB_38280_38340_
y_ESB_GNY_38380_38455_
y_ESB_MLX_38620_38695_
y_ESB_SAW_39480_39540_
y_SAW_AYT_39585_39650_
y_SAW_ADB_39810_39870_
y_ADB_SAW_39905_39965_
y_SAW_ESB_40800_40860_
y_ESB_SAW_40920_40980_
y_SAW_AYT_41025_41090_
y_SAW_ADB_41250_41310_
y_ADB_SAW_41345_41405_
End
