minimize
obj: 
subject to
mp_c3_SEA_GEG_16768_16829_: -1 x_("FAI_SEA_15162_15418",_"SEA_GEG_16768_16829")_ - 1 x_("BZN_SEA_15356_15417",_"SEA_GEG_16768_16829")_ - 1 x_("ORD_SEA_15462_15662",_"SEA_GEG_16768_16829")_ - 1 x_("MSY_SEA_15510_15716",_"SEA_GEG_16768_16829")_ + 1 y_SEA_GEG_16768_16829,N435AS_ + 1 y_SEA_GEG_16768_16829,N548AS_ + 1 y_SEA_GEG_16768_16829,N303AS_ + 1 y_SEA_GEG_16768_16829,N553AS_ + 1 y_SEA_GEG_16768_16829,N556AS_ <= 0
mp_c3_SEA_TPA_13536_14022_: -1 x_("ANC_SEA_11872_12140",_"SEA_TPA_13536_14022")_ - 1 x_("FAI_SEA_11934_12211",_"SEA_TPA_13536_14022")_ - 1 x_("LAS_SEA_12242_12410",_"SEA_TPA_13536_14022")_ - 1 x_("LAS_SEA_12302_12476",_"SEA_TPA_13536_14022")_ - 1 x_("RDM_SEA_12319_12399",_"SEA_TPA_13536_14022")_ - 1 x_("AUS_SEA_12358_12531",_"SEA_TPA_13536_14022")_ - 1 x_("PHX_SEA_12540_12679",_"SEA_TPA_13536_14022")_ + 1 y_SEA_TPA_13536_14022,N435AS_ + 1 y_SEA_TPA_13536_14022,N548AS_ + 1 y_SEA_TPA_13536_14022,N303AS_ + 1 y_SEA_TPA_13536_14022,N553AS_ + 1 y_SEA_TPA_13536_14022,N556AS_ <= 0
mp_c3_SEA_PSP_16272_16438_: -1 x_("MSY_SEA_14807_15011",_"SEA_PSP_16272_16438")_ - 1 x_("MSP_SEA_14826_14932",_"SEA_PSP_16272_16438")_ - 1 x_("JNU_SEA_14935_15110",_"SEA_PSP_16272_16438")_ - 1 x_("FAI_SEA_15162_15418",_"SEA_PSP_16272_16438")_ - 1 x_("BZN_SEA_15356_15417",_"SEA_PSP_16272_16438")_ - 1 x_("ORD_SEA_15462_15662",_"SEA_PSP_16272_16438")_ - 1 x_("MSY_SEA_15510_15716",_"SEA_PSP_16272_16438")_ + 1 y_SEA_PSP_16272_16438,N435AS_ + 1 y_SEA_PSP_16272_16438,N548AS_ + 1 y_SEA_PSP_16272_16438,N303AS_ + 1 y_SEA_PSP_16272_16438,N553AS_ + 1 y_SEA_PSP_16272_16438,N556AS_ <= 0
mp_c3_SEA_PSP_17701_17847_: -1 x_("SNA_SEA_16357_16540",_"SEA_PSP_17701_17847")_ - 1 x_("TUS_SEA_16376_16543",_"SEA_PSP_17701_17847")_ - 1 x_("PSP_SEA_16489_16677",_"SEA_PSP_17701_17847")_ - 1 x_("SNA_SEA_16531_16707",_"SEA_PSP_17701_17847")_ - 1 x_("BOI_SEA_16792_16828",_"SEA_PSP_17701_17847")_ - 1 x_("BZN_SEA_16802_16891",_"SEA_PSP_17701_17847")_ - 1 x_("GEG_SEA_16891_16961",_"SEA_PSP_17701_17847")_ - 1 x_("AUS_SEA_16960_17132",_"SEA_PSP_17701_17847")_ - 1 x_("ABQ_SEA_17007_17164",_"SEA_PSP_17701_17847")_ + 1 y_SEA_PSP_17701_17847,N435AS_ + 1 y_SEA_PSP_17701_17847,N548AS_ + 1 y_SEA_PSP_17701_17847,N303AS_ + 1 y_SEA_PSP_17701_17847,N553AS_ + 1 y_SEA_PSP_17701_17847,N556AS_ <= 0
mp_c3_SEA_SMF_13599_13694_: -1 x_("FAI_SEA_11934_12211",_"SEA_SMF_13599_13694")_ - 1 x_("LAS_SEA_12242_12410",_"SEA_SMF_13599_13694")_ - 1 x_("LAS_SEA_12302_12476",_"SEA_SMF_13599_13694")_ - 1 x_("RDM_SEA_12319_12399",_"SEA_SMF_13599_13694")_ - 1 x_("AUS_SEA_12358_12531",_"SEA_SMF_13599_13694")_ - 1 x_("PHX_SEA_12540_12679",_"SEA_SMF_13599_13694")_ + 1 y_SEA_SMF_13599_13694,N435AS_ + 1 y_SEA_SMF_13599_13694,N548AS_ + 1 y_SEA_SMF_13599_13694,N303AS_ + 1 y_SEA_SMF_13599_13694,N553AS_ + 1 y_SEA_SMF_13599_13694,N556AS_ <= 0
mp_c3_SEA_RDM_12197_12256_: -1 x_("MCO_SEA_10685_10895",_"SEA_RDM_12197_12256")_ - 1 x_("SNA_SEA_10924_11134",_"SEA_RDM_12197_12256")_ - 1 x_("MKE_SEA_10939_11077",_"SEA_RDM_12197_12256")_ - 1 x_("DFW_SEA_10940_11090",_"SEA_RDM_12197_12256")_ - 1 x_("SBA_SEA_11142_11297",_"SEA_RDM_12197_12256")_ + 1 y_SEA_RDM_12197_12256,N435AS_ + 1 y_SEA_RDM_12197_12256,N548AS_ + 1 y_SEA_RDM_12197_12256,N303AS_ + 1 y_SEA_RDM_12197_12256,N553AS_ + 1 y_SEA_RDM_12197_12256,N556AS_ <= 0
mp_c3_SEA_SNA_15482_15629_: -1 x_("SJC_SEA_13949_14086",_"SEA_SNA_15482_15629")_ - 1 x_("GEG_SEA_14008_14081",_"SEA_SNA_15482_15629")_ - 1 x_("TPA_SEA_14080_14280",_"SEA_SNA_15482_15629")_ - 1 x_("SNA_SEA_14146_14321",_"SEA_SNA_15482_15629")_ - 1 x_("PDX_SEA_14715_14768",_"SEA_SNA_15482_15629")_ - 1 x_("MSP_SEA_14826_14932",_"SEA_SNA_15482_15629")_ + 1 y_SEA_SNA_15482_15629,N435AS_ + 1 y_SEA_SNA_15482_15629,N548AS_ + 1 y_SEA_SNA_15482_15629,N303AS_ + 1 y_SEA_SNA_15482_15629,N553AS_ + 1 y_SEA_SNA_15482_15629,N556AS_ <= 0
mp_c3_SEA_BOS_12457_12959_: -1 x_("SNA_SEA_10924_11134",_"SEA_BOS_12457_12959")_ - 1 x_("MKE_SEA_10939_11077",_"SEA_BOS_12457_12959")_ - 1 x_("DFW_SEA_10940_11090",_"SEA_BOS_12457_12959")_ - 1 x_("SBA_SEA_11142_11297",_"SEA_BOS_12457_12959")_ + 1 y_SEA_BOS_12457_12959,N435AS_ + 1 y_SEA_BOS_12457_12959,N548AS_ + 1 y_SEA_BOS_12457_12959,N303AS_ + 1 y_SEA_BOS_12457_12959,N553AS_ + 1 y_SEA_BOS_12457_12959,N556AS_ <= 0
mp_c3_SEA_PHX_12739_12962_: -1 x_("ANC_SEA_11872_12140",_"SEA_PHX_12739_12962")_ - 1 x_("DEN_SEA_11899_12032",_"SEA_PHX_12739_12962")_ - 1 x_("FAI_SEA_11934_12211",_"SEA_PHX_12739_12962")_ + 1 y_SEA_PHX_12739_12962,N435AS_ + 1 y_SEA_PHX_12739_12962,N548AS_ + 1 y_SEA_PHX_12739_12962,N303AS_ + 1 y_SEA_PHX_12739_12962,N553AS_ + 1 y_SEA_PHX_12739_12962,N556AS_ <= 0
mp_c3_SEA_RDM_19919_19997_: -1 x_("BOS_SEA_18621_18803",_"SEA_RDM_19919_19997")_ - 1 x_("BNA_SEA_19135_19352",_"SEA_RDM_19919_19997")_ - 1 x_("TUS_SEA_19192_19345",_"SEA_RDM_19919_19997")_ + 1 y_SEA_RDM_19919_19997,N435AS_ + 1 y_SEA_RDM_19919_19997,N548AS_ + 1 y_SEA_RDM_19919_19997,N303AS_ + 1 y_SEA_RDM_19919_19997,N553AS_ + 1 y_SEA_RDM_19919_19997,N556AS_ <= 0
mp_c3_SEA_BUR_19612_19742_: -1 x_("BOI_SEA_18158_18240",_"SEA_BUR_19612_19742")_ - 1 x_("BOS_SEA_18621_18803",_"SEA_BUR_19612_19742")_ + 1 y_SEA_BUR_19612_19742,N435AS_ + 1 y_SEA_BUR_19612_19742,N548AS_ + 1 y_SEA_BUR_19612_19742,N303AS_ + 1 y_SEA_BUR_19612_19742,N553AS_ + 1 y_SEA_BUR_19612_19742,N556AS_ <= 0
mp_c3_SEA_SNA_19091_19255_: -1 x_("ATL_SEA_17695_17854",_"SEA_SNA_19091_19255")_ - 1 x_("TPA_SEA_17773_17981",_"SEA_SNA_19091_19255")_ - 1 x_("DEN_SEA_17781_17944",_"SEA_SNA_19091_19255")_ - 1 x_("SNA_SEA_17817_17993",_"SEA_SNA_19091_19255")_ - 1 x_("PSP_SEA_17919_18082",_"SEA_SNA_19091_19255")_ - 1 x_("BOI_SEA_18158_18240",_"SEA_SNA_19091_19255")_ + 1 y_SEA_SNA_19091_19255,N435AS_ + 1 y_SEA_SNA_19091_19255,N548AS_ + 1 y_SEA_SNA_19091_19255,N303AS_ + 1 y_SEA_SNA_19091_19255,N553AS_ + 1 y_SEA_SNA_19091_19255,N556AS_ <= 0
mp_c3_SEA_ABQ_16745_16951_: -1 x_("FAI_SEA_15162_15418",_"SEA_ABQ_16745_16951")_ - 1 x_("BZN_SEA_15356_15417",_"SEA_ABQ_16745_16951")_ - 1 x_("ORD_SEA_15462_15662",_"SEA_ABQ_16745_16951")_ - 1 x_("MSY_SEA_15510_15716",_"SEA_ABQ_16745_16951")_ + 1 y_SEA_ABQ_16745_16951,N435AS_ + 1 y_SEA_ABQ_16745_16951,N548AS_ + 1 y_SEA_ABQ_16745_16951,N303AS_ + 1 y_SEA_ABQ_16745_16951,N553AS_ + 1 y_SEA_ABQ_16745_16951,N556AS_ <= 0
mp_c3_SEA_DEN_19533_19753_: -1 x_("BOI_SEA_18158_18240",_"SEA_DEN_19533_19753")_ - 1 x_("BOS_SEA_18621_18803",_"SEA_DEN_19533_19753")_ + 1 y_SEA_DEN_19533_19753,N435AS_ + 1 y_SEA_DEN_19533_19753,N548AS_ + 1 y_SEA_DEN_19533_19753,N303AS_ + 1 y_SEA_DEN_19533_19753,N553AS_ + 1 y_SEA_DEN_19533_19753,N556AS_ <= 0
mp_c3_PDX_AUS_16552_16890_: -1 x_("SAN_PDX_15444_15615",_"PDX_AUS_16552_16890")_ + 1 y_PDX_AUS_16552_16890,N435AS_ + 1 y_PDX_AUS_16552_16890,N548AS_ + 1 y_PDX_AUS_16552_16890,N303AS_ + 1 y_PDX_AUS_16552_16890,N553AS_ + 1 y_PDX_AUS_16552_16890,N556AS_ <= 0
mp_c3_SEA_FAI_14896_15115_: -1 x_("PHX_SEA_13313_13468",_"SEA_FAI_14896_15115")_ - 1 x_("MSP_SEA_13375_13512",_"SEA_FAI_14896_15115")_ - 1 x_("BOS_SEA_13423_13580",_"SEA_FAI_14896_15115")_ - 1 x_("TUS_SEA_13560_13715",_"SEA_FAI_14896_15115")_ - 1 x_("SMF_SEA_13740_13859",_"SEA_FAI_14896_15115")_ - 1 x_("GEG_SEA_13772_13832",_"SEA_FAI_14896_15115")_ - 1 x_("SJC_SEA_13949_14086",_"SEA_FAI_14896_15115")_ - 1 x_("GEG_SEA_14008_14081",_"SEA_FAI_14896_15115")_ - 1 x_("TPA_SEA_14080_14280",_"SEA_FAI_14896_15115")_ - 1 x_("SNA_SEA_14146_14321",_"SEA_FAI_14896_15115")_ + 1 y_SEA_FAI_14896_15115,N435AS_ + 1 y_SEA_FAI_14896_15115,N548AS_ + 1 y_SEA_FAI_14896_15115,N303AS_ + 1 y_SEA_FAI_14896_15115,N553AS_ + 1 y_SEA_FAI_14896_15115,N556AS_ <= 0
mp_c3_SEA_MSY_14351_14725_: -1 x_("PHX_SEA_13313_13468",_"SEA_MSY_14351_14725")_ - 1 x_("MSP_SEA_13375_13512",_"SEA_MSY_14351_14725")_ - 1 x_("BOS_SEA_13423_13580",_"SEA_MSY_14351_14725")_ - 1 x_("TUS_SEA_13560_13715",_"SEA_MSY_14351_14725")_ - 1 x_("SMF_SEA_13740_13859",_"SEA_MSY_14351_14725")_ - 1 x_("GEG_SEA_13772_13832",_"SEA_MSY_14351_14725")_ + 1 y_SEA_MSY_14351_14725,N435AS_ + 1 y_SEA_MSY_14351_14725,N548AS_ + 1 y_SEA_MSY_14351_14725,N303AS_ + 1 y_SEA_MSY_14351_14725,N553AS_ + 1 y_SEA_MSY_14351_14725,N556AS_ <= 0
mp_c3_SEA_DEN_17042_17244_: -1 x_("ORD_SEA_15462_15662",_"SEA_DEN_17042_17244")_ - 1 x_("MSY_SEA_15510_15716",_"SEA_DEN_17042_17244")_ - 1 x_("SNA_SEA_16357_16540",_"SEA_DEN_17042_17244")_ - 1 x_("TUS_SEA_16376_16543",_"SEA_DEN_17042_17244")_ + 1 y_SEA_DEN_17042_17244,N435AS_ + 1 y_SEA_DEN_17042_17244,N548AS_ + 1 y_SEA_DEN_17042_17244,N303AS_ + 1 y_SEA_DEN_17042_17244,N553AS_ + 1 y_SEA_DEN_17042_17244,N556AS_ <= 0
mp_c3_SEA_LAS_12090_12244_: -1 x_("MCO_SEA_10685_10895",_"SEA_LAS_12090_12244")_ - 1 x_("SNA_SEA_10924_11134",_"SEA_LAS_12090_12244")_ - 1 x_("MKE_SEA_10939_11077",_"SEA_LAS_12090_12244")_ - 1 x_("DFW_SEA_10940_11090",_"SEA_LAS_12090_12244")_ - 1 x_("SBA_SEA_11142_11297",_"SEA_LAS_12090_12244")_ + 1 y_SEA_LAS_12090_12244,N435AS_ + 1 y_SEA_LAS_12090_12244,N548AS_ + 1 y_SEA_LAS_12090_12244,N303AS_ + 1 y_SEA_LAS_12090_12244,N553AS_ + 1 y_SEA_LAS_12090_12244,N556AS_ <= 0
mp_c3_SEA_SAN_19141_19296_: -1 x_("ATL_SEA_17695_17854",_"SEA_SAN_19141_19296")_ - 1 x_("TPA_SEA_17773_17981",_"SEA_SAN_19141_19296")_ - 1 x_("DEN_SEA_17781_17944",_"SEA_SAN_19141_19296")_ - 1 x_("SNA_SEA_17817_17993",_"SEA_SAN_19141_19296")_ - 1 x_("PSP_SEA_17919_18082",_"SEA_SAN_19141_19296")_ - 1 x_("BOI_SEA_18158_18240",_"SEA_SAN_19141_19296")_ + 1 y_SEA_SAN_19141_19296,N435AS_ + 1 y_SEA_SAN_19141_19296,N548AS_ + 1 y_SEA_SAN_19141_19296,N303AS_ + 1 y_SEA_SAN_19141_19296,N553AS_ + 1 y_SEA_SAN_19141_19296,N556AS_ <= 0
mp_c3_SEA_BZN_15162_15306_: -1 x_("SMF_SEA_13740_13859",_"SEA_BZN_15162_15306")_ - 1 x_("GEG_SEA_13772_13832",_"SEA_BZN_15162_15306")_ - 1 x_("SJC_SEA_13949_14086",_"SEA_BZN_15162_15306")_ - 1 x_("GEG_SEA_14008_14081",_"SEA_BZN_15162_15306")_ - 1 x_("TPA_SEA_14080_14280",_"SEA_BZN_15162_15306")_ - 1 x_("SNA_SEA_14146_14321",_"SEA_BZN_15162_15306")_ + 1 y_SEA_BZN_15162_15306,N435AS_ + 1 y_SEA_BZN_15162_15306,N548AS_ + 1 y_SEA_BZN_15162_15306,N303AS_ + 1 y_SEA_BZN_15162_15306,N553AS_ + 1 y_SEA_BZN_15162_15306,N556AS_ <= 0
mp_c3_SEA_BNA_18036_18399_: -1 x_("PSP_SEA_16489_16677",_"SEA_BNA_18036_18399")_ - 1 x_("SNA_SEA_16531_16707",_"SEA_BNA_18036_18399")_ - 1 x_("BOI_SEA_16792_16828",_"SEA_BNA_18036_18399")_ - 1 x_("BZN_SEA_16802_16891",_"SEA_BNA_18036_18399")_ - 1 x_("GEG_SEA_16891_16961",_"SEA_BNA_18036_18399")_ - 1 x_("AUS_SEA_16960_17132",_"SEA_BNA_18036_18399")_ - 1 x_("ABQ_SEA_17007_17164",_"SEA_BNA_18036_18399")_ + 1 y_SEA_BNA_18036_18399,N435AS_ + 1 y_SEA_BNA_18036_18399,N548AS_ + 1 y_SEA_BNA_18036_18399,N303AS_ + 1 y_SEA_BNA_18036_18399,N553AS_ + 1 y_SEA_BNA_18036_18399,N556AS_ <= 0
mp_c3_SEA_AUS_14856_15227_: -1 x_("PHX_SEA_13313_13468",_"SEA_AUS_14856_15227")_ - 1 x_("MSP_SEA_13375_13512",_"SEA_AUS_14856_15227")_ - 1 x_("BOS_SEA_13423_13580",_"SEA_AUS_14856_15227")_ - 1 x_("TUS_SEA_13560_13715",_"SEA_AUS_14856_15227")_ - 1 x_("SMF_SEA_13740_13859",_"SEA_AUS_14856_15227")_ - 1 x_("GEG_SEA_13772_13832",_"SEA_AUS_14856_15227")_ - 1 x_("SJC_SEA_13949_14086",_"SEA_AUS_14856_15227")_ - 1 x_("GEG_SEA_14008_14081",_"SEA_AUS_14856_15227")_ - 1 x_("TPA_SEA_14080_14280",_"SEA_AUS_14856_15227")_ - 1 x_("SNA_SEA_14146_14321",_"SEA_AUS_14856_15227")_ + 1 y_SEA_AUS_14856_15227,N435AS_ + 1 y_SEA_AUS_14856_15227,N548AS_ + 1 y_SEA_AUS_14856_15227,N303AS_ + 1 y_SEA_AUS_14856_15227,N553AS_ + 1 y_SEA_AUS_14856_15227,N556AS_ <= 0
mp_c3_SEA_SNA_16942_17083_: -1 x_("ORD_SEA_15462_15662",_"SEA_SNA_16942_17083")_ - 1 x_("MSY_SEA_15510_15716",_"SEA_SNA_16942_17083")_ + 1 y_SEA_SNA_16942_17083,N435AS_ + 1 y_SEA_SNA_16942_17083,N548AS_ + 1 y_SEA_SNA_16942_17083,N303AS_ + 1 y_SEA_SNA_16942_17083,N553AS_ + 1 y_SEA_SNA_16942_17083,N556AS_ <= 0
mp_c3_PDX_BUR_19379_19517_: -1 x_("PHX_PDX_18386_18502",_"PDX_BUR_19379_19517")_ + 1 y_PDX_BUR_19379_19517,N435AS_ + 1 y_PDX_BUR_19379_19517,N548AS_ + 1 y_PDX_BUR_19379_19517,N303AS_ + 1 y_PDX_BUR_19379_19517,N553AS_ + 1 y_PDX_BUR_19379_19517,N556AS_ <= 0
mp_c3_SEA_PHX_12265_12485_: -1 x_("MCO_SEA_10685_10895",_"SEA_PHX_12265_12485")_ - 1 x_("SNA_SEA_10924_11134",_"SEA_PHX_12265_12485")_ - 1 x_("MKE_SEA_10939_11077",_"SEA_PHX_12265_12485")_ - 1 x_("DFW_SEA_10940_11090",_"SEA_PHX_12265_12485")_ - 1 x_("SBA_SEA_11142_11297",_"SEA_PHX_12265_12485")_ + 1 y_SEA_PHX_12265_12485,N435AS_ + 1 y_SEA_PHX_12265_12485,N548AS_ + 1 y_SEA_PHX_12265_12485,N303AS_ + 1 y_SEA_PHX_12265_12485,N553AS_ + 1 y_SEA_PHX_12265_12485,N556AS_ <= 0
mp_c3_SEA_PHX_18088_18307_: -1 x_("PSP_SEA_16489_16677",_"SEA_PHX_18088_18307")_ - 1 x_("SNA_SEA_16531_16707",_"SEA_PHX_18088_18307")_ - 1 x_("BOI_SEA_16792_16828",_"SEA_PHX_18088_18307")_ - 1 x_("BZN_SEA_16802_16891",_"SEA_PHX_18088_18307")_ - 1 x_("GEG_SEA_16891_16961",_"SEA_PHX_18088_18307")_ - 1 x_("AUS_SEA_16960_17132",_"SEA_PHX_18088_18307")_ - 1 x_("ABQ_SEA_17007_17164",_"SEA_PHX_18088_18307")_ + 1 y_SEA_PHX_18088_18307,N435AS_ + 1 y_SEA_PHX_18088_18307,N548AS_ + 1 y_SEA_PHX_18088_18307,N303AS_ + 1 y_SEA_PHX_18088_18307,N553AS_ + 1 y_SEA_PHX_18088_18307,N556AS_ <= 0
mp_c3_SEA_SNA_16306_16484_: -1 x_("MSY_SEA_14807_15011",_"SEA_SNA_16306_16484")_ - 1 x_("MSP_SEA_14826_14932",_"SEA_SNA_16306_16484")_ - 1 x_("JNU_SEA_14935_15110",_"SEA_SNA_16306_16484")_ - 1 x_("FAI_SEA_15162_15418",_"SEA_SNA_16306_16484")_ - 1 x_("BZN_SEA_15356_15417",_"SEA_SNA_16306_16484")_ - 1 x_("ORD_SEA_15462_15662",_"SEA_SNA_16306_16484")_ - 1 x_("MSY_SEA_15510_15716",_"SEA_SNA_16306_16484")_ + 1 y_SEA_SNA_16306_16484,N435AS_ + 1 y_SEA_SNA_16306_16484,N548AS_ + 1 y_SEA_SNA_16306_16484,N303AS_ + 1 y_SEA_SNA_16306_16484,N553AS_ + 1 y_SEA_SNA_16306_16484,N556AS_ <= 0
mp_c3_SEA_LAS_12573_12699_: -1 x_("SNA_SEA_10924_11134",_"SEA_LAS_12573_12699")_ - 1 x_("SBA_SEA_11142_11297",_"SEA_LAS_12573_12699")_ - 1 x_("DEN_SEA_11899_12032",_"SEA_LAS_12573_12699")_ + 1 y_SEA_LAS_12573_12699,N435AS_ + 1 y_SEA_LAS_12573_12699,N548AS_ + 1 y_SEA_LAS_12573_12699,N303AS_ + 1 y_SEA_LAS_12573_12699,N553AS_ + 1 y_SEA_LAS_12573_12699,N556AS_ <= 0
mp_c3_SEA_BOS_18088_18571_: -1 x_("PSP_SEA_16489_16677",_"SEA_BOS_18088_18571")_ - 1 x_("SNA_SEA_16531_16707",_"SEA_BOS_18088_18571")_ - 1 x_("BOI_SEA_16792_16828",_"SEA_BOS_18088_18571")_ - 1 x_("BZN_SEA_16802_16891",_"SEA_BOS_18088_18571")_ - 1 x_("GEG_SEA_16891_16961",_"SEA_BOS_18088_18571")_ - 1 x_("AUS_SEA_16960_17132",_"SEA_BOS_18088_18571")_ - 1 x_("ABQ_SEA_17007_17164",_"SEA_BOS_18088_18571")_ + 1 y_SEA_BOS_18088_18571,N435AS_ + 1 y_SEA_BOS_18088_18571,N548AS_ + 1 y_SEA_BOS_18088_18571,N303AS_ + 1 y_SEA_BOS_18088_18571,N553AS_ + 1 y_SEA_BOS_18088_18571,N556AS_ <= 0
mp_c3_SEA_JNU_14137_14272_: -1 x_("PHX_SEA_13313_13468",_"SEA_JNU_14137_14272")_ - 1 x_("MSP_SEA_13375_13512",_"SEA_JNU_14137_14272")_ - 1 x_("BOS_SEA_13423_13580",_"SEA_JNU_14137_14272")_ + 1 y_SEA_JNU_14137_14272,N435AS_ + 1 y_SEA_JNU_14137_14272,N548AS_ + 1 y_SEA_JNU_14137_14272,N303AS_ + 1 y_SEA_JNU_14137_14272,N553AS_ + 1 y_SEA_JNU_14137_14272,N556AS_ <= 0
mp_c3_SEA_BOI_16599_16734_: -1 x_("FAI_SEA_15162_15418",_"SEA_BOI_16599_16734")_ - 1 x_("BZN_SEA_15356_15417",_"SEA_BOI_16599_16734")_ - 1 x_("ORD_SEA_15462_15662",_"SEA_BOI_16599_16734")_ - 1 x_("MSY_SEA_15510_15716",_"SEA_BOI_16599_16734")_ + 1 y_SEA_BOI_16599_16734,N435AS_ + 1 y_SEA_BOI_16599_16734,N548AS_ + 1 y_SEA_BOI_16599_16734,N303AS_ + 1 y_SEA_BOI_16599_16734,N553AS_ + 1 y_SEA_BOI_16599_16734,N556AS_ <= 0
mp_c3_SEA_GEG_13644_13713_: -1 x_("FAI_SEA_11934_12211",_"SEA_GEG_13644_13713")_ - 1 x_("LAS_SEA_12242_12410",_"SEA_GEG_13644_13713")_ - 1 x_("LAS_SEA_12302_12476",_"SEA_GEG_13644_13713")_ - 1 x_("RDM_SEA_12319_12399",_"SEA_GEG_13644_13713")_ - 1 x_("AUS_SEA_12358_12531",_"SEA_GEG_13644_13713")_ - 1 x_("PHX_SEA_12540_12679",_"SEA_GEG_13644_13713")_ + 1 y_SEA_GEG_13644_13713,N435AS_ + 1 y_SEA_GEG_13644_13713,N548AS_ + 1 y_SEA_GEG_13644_13713,N303AS_ + 1 y_SEA_GEG_13644_13713,N553AS_ + 1 y_SEA_GEG_13644_13713,N556AS_ <= 0
mp_c3_SEA_FAI_11156_11321_: -1 x_("N548AS",_"SEA_FAI_11156_11321")_ - 1 x_("N303AS",_"SEA_FAI_11156_11321")_ + 1 y_SEA_FAI_11156_11321,N435AS_ + 1 y_SEA_FAI_11156_11321,N548AS_ + 1 y_SEA_FAI_11156_11321,N303AS_ + 1 y_SEA_FAI_11156_11321,N553AS_ + 1 y_SEA_FAI_11156_11321,N556AS_ <= 0
mp_c3_SEA_BZN_16600_16757_: -1 x_("FAI_SEA_15162_15418",_"SEA_BZN_16600_16757")_ - 1 x_("BZN_SEA_15356_15417",_"SEA_BZN_16600_16757")_ - 1 x_("ORD_SEA_15462_15662",_"SEA_BZN_16600_16757")_ - 1 x_("MSY_SEA_15510_15716",_"SEA_BZN_16600_16757")_ + 1 y_SEA_BZN_16600_16757,N435AS_ + 1 y_SEA_BZN_16600_16757,N548AS_ + 1 y_SEA_BZN_16600_16757,N303AS_ + 1 y_SEA_BZN_16600_16757,N553AS_ + 1 y_SEA_BZN_16600_16757,N556AS_ <= 0
mp_c3_SEA_MSY_15060_15437_: -1 x_("TUS_SEA_13560_13715",_"SEA_MSY_15060_15437")_ - 1 x_("SMF_SEA_13740_13859",_"SEA_MSY_15060_15437")_ - 1 x_("GEG_SEA_13772_13832",_"SEA_MSY_15060_15437")_ - 1 x_("SJC_SEA_13949_14086",_"SEA_MSY_15060_15437")_ - 1 x_("GEG_SEA_14008_14081",_"SEA_MSY_15060_15437")_ - 1 x_("TPA_SEA_14080_14280",_"SEA_MSY_15060_15437")_ - 1 x_("SNA_SEA_14146_14321",_"SEA_MSY_15060_15437")_ + 1 y_SEA_MSY_15060_15437,N435AS_ + 1 y_SEA_MSY_15060_15437,N548AS_ + 1 y_SEA_MSY_15060_15437,N303AS_ + 1 y_SEA_MSY_15060_15437,N553AS_ + 1 y_SEA_MSY_15060_15437,N556AS_ <= 0
mp_c3_SEA_ANC_19993_20169_: -1 x_("BOS_SEA_18621_18803",_"SEA_ANC_19993_20169")_ - 1 x_("BNA_SEA_19135_19352",_"SEA_ANC_19993_20169")_ - 1 x_("TUS_SEA_19192_19345",_"SEA_ANC_19993_20169")_ - 1 x_("SNA_SEA_19300_19472",_"SEA_ANC_19993_20169")_ + 1 y_SEA_ANC_19993_20169,N435AS_ + 1 y_SEA_ANC_19993_20169,N548AS_ + 1 y_SEA_ANC_19993_20169,N303AS_ + 1 y_SEA_ANC_19993_20169,N553AS_ + 1 y_SEA_ANC_19993_20169,N556AS_ <= 0
mp_c3_SEA_MSP_14135_14466_: -1 x_("PHX_SEA_13313_13468",_"SEA_MSP_14135_14466")_ - 1 x_("MSP_SEA_13375_13512",_"SEA_MSP_14135_14466")_ - 1 x_("BOS_SEA_13423_13580",_"SEA_MSP_14135_14466")_ + 1 y_SEA_MSP_14135_14466,N435AS_ + 1 y_SEA_MSP_14135_14466,N548AS_ + 1 y_SEA_MSP_14135_14466,N303AS_ + 1 y_SEA_MSP_14135_14466,N553AS_ + 1 y_SEA_MSP_14135_14466,N556AS_ <= 0
mp_c3_SEA_AUS_11448_11783_: -1 x_("N548AS",_"SEA_AUS_11448_11783")_ - 1 x_("N303AS",_"SEA_AUS_11448_11783")_ - 1 x_("MCO_SEA_10685_10895",_"SEA_AUS_11448_11783")_ + 1 y_SEA_AUS_11448_11783,N435AS_ + 1 y_SEA_AUS_11448_11783,N548AS_ + 1 y_SEA_AUS_11448_11783,N303AS_ + 1 y_SEA_AUS_11448_11783,N553AS_ + 1 y_SEA_AUS_11448_11783,N556AS_ <= 0
mp_c3_SEA_ORD_15012_15365_: -1 x_("BOS_SEA_13423_13580",_"SEA_ORD_15012_15365")_ - 1 x_("TUS_SEA_13560_13715",_"SEA_ORD_15012_15365")_ - 1 x_("SMF_SEA_13740_13859",_"SEA_ORD_15012_15365")_ - 1 x_("GEG_SEA_13772_13832",_"SEA_ORD_15012_15365")_ - 1 x_("SJC_SEA_13949_14086",_"SEA_ORD_15012_15365")_ - 1 x_("GEG_SEA_14008_14081",_"SEA_ORD_15012_15365")_ - 1 x_("TPA_SEA_14080_14280",_"SEA_ORD_15012_15365")_ - 1 x_("SNA_SEA_14146_14321",_"SEA_ORD_15012_15365")_ + 1 y_SEA_ORD_15012_15365,N435AS_ + 1 y_SEA_ORD_15012_15365,N548AS_ + 1 y_SEA_ORD_15012_15365,N303AS_ + 1 y_SEA_ORD_15012_15365,N553AS_ + 1 y_SEA_ORD_15012_15365,N556AS_ <= 0
mp_c3_SEA_DAL_19410_19742_: -1 x_("TPA_SEA_17773_17981",_"SEA_DAL_19410_19742")_ - 1 x_("SNA_SEA_17817_17993",_"SEA_DAL_19410_19742")_ - 1 x_("PSP_SEA_17919_18082",_"SEA_DAL_19410_19742")_ - 1 x_("BOI_SEA_18158_18240",_"SEA_DAL_19410_19742")_ - 1 x_("BOS_SEA_18621_18803",_"SEA_DAL_19410_19742")_ + 1 y_SEA_DAL_19410_19742,N435AS_ + 1 y_SEA_DAL_19410_19742,N548AS_ + 1 y_SEA_DAL_19410_19742,N303AS_ + 1 y_SEA_DAL_19410_19742,N553AS_ + 1 y_SEA_DAL_19410_19742,N556AS_ <= 0
mp_c3_SEA_BOI_17952_18088_: -1 x_("SNA_SEA_16357_16540",_"SEA_BOI_17952_18088")_ - 1 x_("TUS_SEA_16376_16543",_"SEA_BOI_17952_18088")_ - 1 x_("PSP_SEA_16489_16677",_"SEA_BOI_17952_18088")_ - 1 x_("SNA_SEA_16531_16707",_"SEA_BOI_17952_18088")_ - 1 x_("BOI_SEA_16792_16828",_"SEA_BOI_17952_18088")_ - 1 x_("BZN_SEA_16802_16891",_"SEA_BOI_17952_18088")_ - 1 x_("GEG_SEA_16891_16961",_"SEA_BOI_17952_18088")_ - 1 x_("AUS_SEA_16960_17132",_"SEA_BOI_17952_18088")_ - 1 x_("ABQ_SEA_17007_17164",_"SEA_BOI_17952_18088")_ + 1 y_SEA_BOI_17952_18088,N435AS_ + 1 y_SEA_BOI_17952_18088,N548AS_ + 1 y_SEA_BOI_17952_18088,N303AS_ + 1 y_SEA_BOI_17952_18088,N553AS_ + 1 y_SEA_BOI_17952_18088,N556AS_ <= 0
mp_c3_SNA_SEA_17817_17993_: -1 x_("SEA_SNA_16306_16484",_"SNA_SEA_17817_17993")_ - 1 x_("SEA_SNA_16942_17083",_"SNA_SEA_17817_17993")_ + 1 y_SNA_SEA_17817_17993,N435AS_ + 1 y_SNA_SEA_17817_17993,N548AS_ + 1 y_SNA_SEA_17817_17993,N303AS_ + 1 y_SNA_SEA_17817_17993,N553AS_ + 1 y_SNA_SEA_17817_17993,N556AS_ <= 0
mp_c3_SEA_TUS_15472_15686_: -1 x_("SJC_SEA_13949_14086",_"SEA_TUS_15472_15686")_ - 1 x_("GEG_SEA_14008_14081",_"SEA_TUS_15472_15686")_ - 1 x_("TPA_SEA_14080_14280",_"SEA_TUS_15472_15686")_ - 1 x_("SNA_SEA_14146_14321",_"SEA_TUS_15472_15686")_ - 1 x_("PDX_SEA_14715_14768",_"SEA_TUS_15472_15686")_ - 1 x_("MSP_SEA_14826_14932",_"SEA_TUS_15472_15686")_ + 1 y_SEA_TUS_15472_15686,N435AS_ + 1 y_SEA_TUS_15472_15686,N548AS_ + 1 y_SEA_TUS_15472_15686,N303AS_ + 1 y_SEA_TUS_15472_15686,N553AS_ + 1 y_SEA_TUS_15472_15686,N556AS_ <= 0
mp_c3_SEA_TPA_17215_17682_: -1 x_("SNA_SEA_16357_16540",_"SEA_TPA_17215_17682")_ - 1 x_("TUS_SEA_16376_16543",_"SEA_TPA_17215_17682")_ - 1 x_("PSP_SEA_16489_16677",_"SEA_TPA_17215_17682")_ - 1 x_("SNA_SEA_16531_16707",_"SEA_TPA_17215_17682")_ + 1 y_SEA_TPA_17215_17682,N435AS_ + 1 y_SEA_TPA_17215_17682,N548AS_ + 1 y_SEA_TPA_17215_17682,N303AS_ + 1 y_SEA_TPA_17215_17682,N553AS_ + 1 y_SEA_TPA_17215_17682,N556AS_ <= 0
mp_c3_SEA_ANC_11214_11362_: -1 x_("N548AS",_"SEA_ANC_11214_11362")_ - 1 x_("N303AS",_"SEA_ANC_11214_11362")_ + 1 y_SEA_ANC_11214_11362,N435AS_ + 1 y_SEA_ANC_11214_11362,N548AS_ + 1 y_SEA_ANC_11214_11362,N303AS_ + 1 y_SEA_ANC_11214_11362,N553AS_ + 1 y_SEA_ANC_11214_11362,N556AS_ <= 0
mp_c3_TUS_SEA_19702_19837_: -1 x_("SEA_TUS_18139_18362",_"TUS_SEA_19702_19837")_ + 1 y_TUS_SEA_19702_19837,N435AS_ + 1 y_TUS_SEA_19702_19837,N548AS_ + 1 y_TUS_SEA_19702_19837,N303AS_ + 1 y_TUS_SEA_19702_19837,N553AS_ + 1 y_TUS_SEA_19702_19837,N556AS_ <= 0
mp_c3_SEA_GEG_13889_13953_: -1 x_("LAS_SEA_12302_12476",_"SEA_GEG_13889_13953")_ - 1 x_("AUS_SEA_12358_12531",_"SEA_GEG_13889_13953")_ - 1 x_("PHX_SEA_12540_12679",_"SEA_GEG_13889_13953")_ + 1 y_SEA_GEG_13889_13953,N435AS_ + 1 y_SEA_GEG_13889_13953,N548AS_ + 1 y_SEA_GEG_13889_13953,N303AS_ + 1 y_SEA_GEG_13889_13953,N553AS_ + 1 y_SEA_GEG_13889_13953,N556AS_ <= 0
mp_c3_SEA_SJC_13777_13892_: -1 x_("LAS_SEA_12242_12410",_"SEA_SJC_13777_13892")_ - 1 x_("LAS_SEA_12302_12476",_"SEA_SJC_13777_13892")_ - 1 x_("RDM_SEA_12319_12399",_"SEA_SJC_13777_13892")_ - 1 x_("AUS_SEA_12358_12531",_"SEA_SJC_13777_13892")_ - 1 x_("PHX_SEA_12540_12679",_"SEA_SJC_13777_13892")_ + 1 y_SEA_SJC_13777_13892,N435AS_ + 1 y_SEA_SJC_13777_13892,N548AS_ + 1 y_SEA_SJC_13777_13892,N303AS_ + 1 y_SEA_SJC_13777_13892,N553AS_ + 1 y_SEA_SJC_13777_13892,N556AS_ <= 0
mp_c3_SEA_SNA_13947_14092_: -1 x_("AUS_SEA_12358_12531",_"SEA_SNA_13947_14092")_ - 1 x_("PHX_SEA_12540_12679",_"SEA_SNA_13947_14092")_ + 1 y_SEA_SNA_13947_14092,N435AS_ + 1 y_SEA_SNA_13947_14092,N548AS_ + 1 y_SEA_SNA_13947_14092,N303AS_ + 1 y_SEA_SNA_13947_14092,N553AS_ + 1 y_SEA_SNA_13947_14092,N556AS_ <= 0
mp_c3_SEA_TUS_18139_18362_: -1 x_("SNA_SEA_16531_16707",_"SEA_TUS_18139_18362")_ - 1 x_("BOI_SEA_16792_16828",_"SEA_TUS_18139_18362")_ - 1 x_("BZN_SEA_16802_16891",_"SEA_TUS_18139_18362")_ - 1 x_("GEG_SEA_16891_16961",_"SEA_TUS_18139_18362")_ - 1 x_("AUS_SEA_16960_17132",_"SEA_TUS_18139_18362")_ - 1 x_("ABQ_SEA_17007_17164",_"SEA_TUS_18139_18362")_ + 1 y_SEA_TUS_18139_18362,N435AS_ + 1 y_SEA_TUS_18139_18362,N548AS_ + 1 y_SEA_TUS_18139_18362,N303AS_ + 1 y_SEA_TUS_18139_18362,N553AS_ + 1 y_SEA_TUS_18139_18362,N556AS_ <= 0
mp_c3_SEA_DEN_11299_11510_: -1 x_("N548AS",_"SEA_DEN_11299_11510")_ - 1 x_("N303AS",_"SEA_DEN_11299_11510")_ + 1 y_SEA_DEN_11299_11510,N435AS_ + 1 y_SEA_DEN_11299_11510,N548AS_ + 1 y_SEA_DEN_11299_11510,N303AS_ + 1 y_SEA_DEN_11299_11510,N553AS_ + 1 y_SEA_DEN_11299_11510,N556AS_ <= 0
mp_c3_PDX_SEA_14715_14768_: -1 x_("HNL_PDX_13699_14142",_"PDX_SEA_14715_14768")_ + 1 y_PDX_SEA_14715_14768,N435AS_ + 1 y_PDX_SEA_14715_14768,N548AS_ + 1 y_PDX_SEA_14715_14768,N303AS_ + 1 y_PDX_SEA_14715_14768,N553AS_ + 1 y_PDX_SEA_14715_14768,N556AS_ <= 0
mp_c3_TUS_SEA_16376_16543_: -1 x_("SEA_TUS_15472_15686",_"TUS_SEA_16376_16543")_ + 1 y_TUS_SEA_16376_16543,N435AS_ + 1 y_TUS_SEA_16376_16543,N548AS_ + 1 y_TUS_SEA_16376_16543,N303AS_ + 1 y_TUS_SEA_16376_16543,N553AS_ + 1 y_TUS_SEA_16376_16543,N556AS_ <= 0
mp_c3_SNA_PDX_19948_20103_: -1 x_("SEA_SNA_19091_19255",_"SNA_PDX_19948_20103")_ + 1 y_SNA_PDX_19948_20103,N435AS_ + 1 y_SNA_PDX_19948_20103,N548AS_ + 1 y_SNA_PDX_19948_20103,N303AS_ + 1 y_SNA_PDX_19948_20103,N553AS_ + 1 y_SNA_PDX_19948_20103,N556AS_ <= 0
mp_c3_PDX_SNA_19778_19909_: -1 x_("PHX_PDX_18386_18502",_"PDX_SNA_19778_19909")_ + 1 y_PDX_SNA_19778_19909,N435AS_ + 1 y_PDX_SNA_19778_19909,N548AS_ + 1 y_PDX_SNA_19778_19909,N303AS_ + 1 y_PDX_SNA_19778_19909,N553AS_ + 1 y_PDX_SNA_19778_19909,N556AS_ <= 0
mp_c3_SEA_TUS_19409_19642_: -1 x_("TPA_SEA_17773_17981",_"SEA_TUS_19409_19642")_ - 1 x_("SNA_SEA_17817_17993",_"SEA_TUS_19409_19642")_ - 1 x_("PSP_SEA_17919_18082",_"SEA_TUS_19409_19642")_ - 1 x_("BOI_SEA_18158_18240",_"SEA_TUS_19409_19642")_ - 1 x_("BOS_SEA_18621_18803",_"SEA_TUS_19409_19642")_ + 1 y_SEA_TUS_19409_19642,N435AS_ + 1 y_SEA_TUS_19409_19642,N548AS_ + 1 y_SEA_TUS_19409_19642,N303AS_ + 1 y_SEA_TUS_19409_19642,N553AS_ + 1 y_SEA_TUS_19409_19642,N556AS_ <= 0
mp_c3_PDX_LAS_11263_11390_: -1 x_("N435AS",_"PDX_LAS_11263_11390")_ - 1 x_("BUR_PDX_10515_10681",_"PDX_LAS_11263_11390")_ + 1 y_PDX_LAS_11263_11390,N435AS_ + 1 y_PDX_LAS_11263_11390,N548AS_ + 1 y_PDX_LAS_11263_11390,N303AS_ + 1 y_PDX_LAS_11263_11390,N553AS_ + 1 y_PDX_LAS_11263_11390,N556AS_ <= 0
mp_c3_SEA_ATL_16907_17347_: -1 x_("ORD_SEA_15462_15662",_"SEA_ATL_16907_17347")_ - 1 x_("MSY_SEA_15510_15716",_"SEA_ATL_16907_17347")_ + 1 y_SEA_ATL_16907_17347,N435AS_ + 1 y_SEA_ATL_16907_17347,N548AS_ + 1 y_SEA_ATL_16907_17347,N303AS_ + 1 y_SEA_ATL_16907_17347,N553AS_ + 1 y_SEA_ATL_16907_17347,N556AS_ <= 0
mp_c3_SEA_TUS_12542_12765_: -1 x_("SNA_SEA_10924_11134",_"SEA_TUS_12542_12765")_ - 1 x_("SBA_SEA_11142_11297",_"SEA_TUS_12542_12765")_ - 1 x_("DEN_SEA_11899_12032",_"SEA_TUS_12542_12765")_ + 1 y_SEA_TUS_12542_12765,N435AS_ + 1 y_SEA_TUS_12542_12765,N548AS_ + 1 y_SEA_TUS_12542_12765,N303AS_ + 1 y_SEA_TUS_12542_12765,N553AS_ + 1 y_SEA_TUS_12542_12765,N556AS_ <= 0
mp_c3_SNA_SEA_16357_16540_: -1 x_("SEA_SNA_15482_15629",_"SNA_SEA_16357_16540")_ + 1 y_SNA_SEA_16357_16540,N435AS_ + 1 y_SNA_SEA_16357_16540,N548AS_ + 1 y_SNA_SEA_16357_16540,N303AS_ + 1 y_SNA_SEA_16357_16540,N553AS_ + 1 y_SNA_SEA_16357_16540,N556AS_ <= 0
mp_c3_LAS_LAX_12746_12823_: -1 x_("PDX_LAS_11263_11390",_"LAS_LAX_12746_12823")_ - 1 x_("SEA_LAS_12090_12244",_"LAS_LAX_12746_12823")_ + 1 y_LAS_LAX_12746_12823,N435AS_ + 1 y_LAS_LAX_12746_12823,N548AS_ + 1 y_LAS_LAX_12746_12823,N303AS_ + 1 y_LAS_LAX_12746_12823,N553AS_ + 1 y_LAS_LAX_12746_12823,N556AS_ <= 0
mp_c3_SEA_MSP_12603_12910_: -1 x_("SBA_SEA_11142_11297",_"SEA_MSP_12603_12910")_ - 1 x_("DEN_SEA_11899_12032",_"SEA_MSP_12603_12910")_ + 1 y_SEA_MSP_12603_12910,N435AS_ + 1 y_SEA_MSP_12603_12910,N548AS_ + 1 y_SEA_MSP_12603_12910,N303AS_ + 1 y_SEA_MSP_12603_12910,N553AS_ + 1 y_SEA_MSP_12603_12910,N556AS_ <= 0
mp_c3_SNA_SEA_16531_16707_: -1 x_("SEA_SNA_15482_15629",_"SNA_SEA_16531_16707")_ + 1 y_SNA_SEA_16531_16707,N435AS_ + 1 y_SNA_SEA_16531_16707,N548AS_ + 1 y_SNA_SEA_16531_16707,N303AS_ + 1 y_SNA_SEA_16531_16707,N553AS_ + 1 y_SNA_SEA_16531_16707,N556AS_ <= 0
mp_c3_TUS_SEA_19192_19345_: -1 x_("SEA_TUS_18139_18362",_"TUS_SEA_19192_19345")_ + 1 y_TUS_SEA_19192_19345,N435AS_ + 1 y_TUS_SEA_19192_19345,N548AS_ + 1 y_TUS_SEA_19192_19345,N303AS_ + 1 y_TUS_SEA_19192_19345,N553AS_ + 1 y_TUS_SEA_19192_19345,N556AS_ <= 0
mp_c3_LAS_SEA_12302_12476_: -1 x_("PDX_LAS_11263_11390",_"LAS_SEA_12302_12476")_ + 1 y_LAS_SEA_12302_12476,N435AS_ + 1 y_LAS_SEA_12302_12476,N548AS_ + 1 y_LAS_SEA_12302_12476,N303AS_ + 1 y_LAS_SEA_12302_12476,N553AS_ + 1 y_LAS_SEA_12302_12476,N556AS_ <= 0
mp_c3_TUS_SEA_13560_13715_: -1 x_("SEA_TUS_12542_12765",_"TUS_SEA_13560_13715")_ + 1 y_TUS_SEA_13560_13715,N435AS_ + 1 y_TUS_SEA_13560_13715,N548AS_ + 1 y_TUS_SEA_13560_13715,N303AS_ + 1 y_TUS_SEA_13560_13715,N553AS_ + 1 y_TUS_SEA_13560_13715,N556AS_ <= 0
mp_c3_LAS_SEA_12242_12410_: -1 x_("PDX_LAS_11263_11390",_"LAS_SEA_12242_12410")_ + 1 y_LAS_SEA_12242_12410,N435AS_ + 1 y_LAS_SEA_12242_12410,N548AS_ + 1 y_LAS_SEA_12242_12410,N303AS_ + 1 y_LAS_SEA_12242_12410,N553AS_ + 1 y_LAS_SEA_12242_12410,N556AS_ <= 0
mp_c4_N435AS_: 1 y_SEA_GEG_16768_16829,N435AS_ + 1 y_SEA_TPA_13536_14022,N435AS_ + 1 y_SEA_PSP_16272_16438,N435AS_ + 1 y_SEA_PSP_17701_17847,N435AS_ + 1 y_SEA_SMF_13599_13694,N435AS_ + 1 y_SEA_RDM_12197_12256,N435AS_ + 1 y_SEA_SNA_15482_15629,N435AS_ + 1 y_SEA_BOS_12457_12959,N435AS_ + 1 y_SEA_PHX_12739_12962,N435AS_ + 1 y_SEA_RDM_19919_19997,N435AS_ + 1 y_SEA_BUR_19612_19742,N435AS_ + 1 y_SEA_SNA_19091_19255,N435AS_ + 1 y_SEA_ABQ_16745_16951,N435AS_ + 1 y_SEA_DEN_19533_19753,N435AS_ + 1 y_PDX_AUS_16552_16890,N435AS_ + 1 y_SEA_FAI_14896_15115,N435AS_ + 1 y_SEA_MSY_14351_14725,N435AS_ + 1 y_SEA_DEN_17042_17244,N435AS_ + 1 y_SEA_LAS_12090_12244,N435AS_ + 1 y_SEA_SAN_19141_19296,N435AS_ + 1 y_SEA_BZN_15162_15306,N435AS_ + 1 y_SEA_BNA_18036_18399,N435AS_ + 1 y_SEA_AUS_14856_15227,N435AS_ + 1 y_SEA_SNA_16942_17083,N435AS_ + 1 y_PDX_BUR_19379_19517,N435AS_ + 1 y_SEA_PHX_12265_12485,N435AS_ + 1 y_SEA_PHX_18088_18307,N435AS_ + 1 y_SEA_SNA_16306_16484,N435AS_ + 1 y_SEA_LAS_12573_12699,N435AS_ + 1 y_SEA_BOS_18088_18571,N435AS_ + 1 y_SEA_JNU_14137_14272,N435AS_ + 1 y_SEA_BOI_16599_16734,N435AS_ + 1 y_SEA_GEG_13644_13713,N435AS_ + 1 y_SEA_FAI_11156_11321,N435AS_ + 1 y_SEA_BZN_16600_16757,N435AS_ + 1 y_SEA_MSY_15060_15437,N435AS_ + 1 y_SEA_ANC_19993_20169,N435AS_ + 1 y_SEA_MSP_14135_14466,N435AS_ + 1 y_SEA_AUS_11448_11783,N435AS_ + 1 y_SEA_ORD_15012_15365,N435AS_ + 1 y_SEA_DAL_19410_19742,N435AS_ + 1 y_SEA_BOI_17952_18088,N435AS_ + 1 y_SNA_SEA_17817_17993,N435AS_ + 1 y_SEA_TUS_15472_15686,N435AS_ + 1 y_SEA_TPA_17215_17682,N435AS_ + 1 y_SEA_ANC_11214_11362,N435AS_ + 1 y_TUS_SEA_19702_19837,N435AS_ + 1 y_SEA_GEG_13889_13953,N435AS_ + 1 y_SEA_SJC_13777_13892,N435AS_ + 1 y_SEA_SNA_13947_14092,N435AS_ + 1 y_SEA_TUS_18139_18362,N435AS_ + 1 y_SEA_DEN_11299_11510,N435AS_ + 1 y_PDX_SEA_14715_14768,N435AS_ + 1 y_TUS_SEA_16376_16543,N435AS_ + 1 y_SNA_PDX_19948_20103,N435AS_ + 1 y_PDX_SNA_19778_19909,N435AS_ + 1 y_SEA_TUS_19409_19642,N435AS_ + 1 y_PDX_LAS_11263_11390,N435AS_ + 1 y_SEA_ATL_16907_17347,N435AS_ + 1 y_SEA_TUS_12542_12765,N435AS_ + 1 y_SNA_SEA_16357_16540,N435AS_ + 1 y_LAS_LAX_12746_12823,N435AS_ + 1 y_SEA_MSP_12603_12910,N435AS_ + 1 y_SNA_SEA_16531_16707,N435AS_ + 1 y_TUS_SEA_19192_19345,N435AS_ + 1 y_LAS_SEA_12302_12476,N435AS_ + 1 y_TUS_SEA_13560_13715,N435AS_ + 1 y_LAS_SEA_12242_12410,N435AS_ <= 1
mp_c4_N553AS_: 1 y_SEA_GEG_16768_16829,N553AS_ + 1 y_SEA_TPA_13536_14022,N553AS_ + 1 y_SEA_PSP_16272_16438,N553AS_ + 1 y_SEA_PSP_17701_17847,N553AS_ + 1 y_SEA_SMF_13599_13694,N553AS_ + 1 y_SEA_RDM_12197_12256,N553AS_ + 1 y_SEA_SNA_15482_15629,N553AS_ + 1 y_SEA_BOS_12457_12959,N553AS_ + 1 y_SEA_PHX_12739_12962,N553AS_ + 1 y_SEA_RDM_19919_19997,N553AS_ + 1 y_SEA_BUR_19612_19742,N553AS_ + 1 y_SEA_SNA_19091_19255,N553AS_ + 1 y_SEA_ABQ_16745_16951,N553AS_ + 1 y_SEA_DEN_19533_19753,N553AS_ + 1 y_PDX_AUS_16552_16890,N553AS_ + 1 y_SEA_FAI_14896_15115,N553AS_ + 1 y_SEA_MSY_14351_14725,N553AS_ + 1 y_SEA_DEN_17042_17244,N553AS_ + 1 y_SEA_LAS_12090_12244,N553AS_ + 1 y_SEA_SAN_19141_19296,N553AS_ + 1 y_SEA_BZN_15162_15306,N553AS_ + 1 y_SEA_BNA_18036_18399,N553AS_ + 1 y_SEA_AUS_14856_15227,N553AS_ + 1 y_SEA_SNA_16942_17083,N553AS_ + 1 y_PDX_BUR_19379_19517,N553AS_ + 1 y_SEA_PHX_12265_12485,N553AS_ + 1 y_SEA_PHX_18088_18307,N553AS_ + 1 y_SEA_SNA_16306_16484,N553AS_ + 1 y_SEA_LAS_12573_12699,N553AS_ + 1 y_SEA_BOS_18088_18571,N553AS_ + 1 y_SEA_JNU_14137_14272,N553AS_ + 1 y_SEA_BOI_16599_16734,N553AS_ + 1 y_SEA_GEG_13644_13713,N553AS_ + 1 y_SEA_FAI_11156_11321,N553AS_ + 1 y_SEA_BZN_16600_16757,N553AS_ + 1 y_SEA_MSY_15060_15437,N553AS_ + 1 y_SEA_ANC_19993_20169,N553AS_ + 1 y_SEA_MSP_14135_14466,N553AS_ + 1 y_SEA_AUS_11448_11783,N553AS_ + 1 y_SEA_ORD_15012_15365,N553AS_ + 1 y_SEA_DAL_19410_19742,N553AS_ + 1 y_SEA_BOI_17952_18088,N553AS_ + 1 y_SNA_SEA_17817_17993,N553AS_ + 1 y_SEA_TUS_15472_15686,N553AS_ + 1 y_SEA_TPA_17215_17682,N553AS_ + 1 y_SEA_ANC_11214_11362,N553AS_ + 1 y_TUS_SEA_19702_19837,N553AS_ + 1 y_SEA_GEG_13889_13953,N553AS_ + 1 y_SEA_SJC_13777_13892,N553AS_ + 1 y_SEA_SNA_13947_14092,N553AS_ + 1 y_SEA_TUS_18139_18362,N553AS_ + 1 y_SEA_DEN_11299_11510,N553AS_ + 1 y_PDX_SEA_14715_14768,N553AS_ + 1 y_TUS_SEA_16376_16543,N553AS_ + 1 y_SNA_PDX_19948_20103,N553AS_ + 1 y_PDX_SNA_19778_19909,N553AS_ + 1 y_SEA_TUS_19409_19642,N553AS_ + 1 y_PDX_LAS_11263_11390,N553AS_ + 1 y_SEA_ATL_16907_17347,N553AS_ + 1 y_SEA_TUS_12542_12765,N553AS_ + 1 y_SNA_SEA_16357_16540,N553AS_ + 1 y_LAS_LAX_12746_12823,N553AS_ + 1 y_SEA_MSP_12603_12910,N553AS_ + 1 y_SNA_SEA_16531_16707,N553AS_ + 1 y_TUS_SEA_19192_19345,N553AS_ + 1 y_LAS_SEA_12302_12476,N553AS_ + 1 y_TUS_SEA_13560_13715,N553AS_ + 1 y_LAS_SEA_12242_12410,N553AS_ <= 1
c1: 1 x_("s",_"N435AS")_ + 1 x_("s",_"N548AS")_ + 1 x_("s",_"N303AS")_ + 1 x_("s",_"N553AS")_ + 1 x_("s",_"N556AS")_ = 5
c2: 1 x_("BOS_SEA_18621_18803",_"t")_ + 1 x_("SEA_SNA_19091_19255",_"t")_ + 1 x_("BNA_SEA_19135_19352",_"t")_ + 1 x_("SEA_SAN_19141_19296",_"t")_ + 1 x_("TUS_SEA_19192_19345",_"t")_ + 1 x_("SNA_SEA_19300_19472",_"t")_ + 1 x_("SAN_SEA_19361_19548",_"t")_ + 1 x_("PDX_BUR_19379_19517",_"t")_ + 1 x_("SEA_TUS_19409_19642",_"t")_ + 1 x_("SEA_DAL_19410_19742",_"t")_ + 1 x_("SEA_DEN_19533_19753",_"t")_ + 1 x_("BUR_PDX_19570_19722",_"t")_ + 1 x_("SEA_BUR_19612_19742",_"t")_ + 1 x_("TUS_SEA_19702_19837",_"t")_ + 1 x_("PDX_SNA_19778_19909",_"t")_ + 1 x_("BUR_SEA_19808_19983",_"t")_ + 1 x_("DEN_SEA_19812_19934",_"t")_ + 1 x_("DAL_SEA_19816_19973",_"t")_ + 1 x_("SEA_RDM_19919_19997",_"t")_ + 1 x_("SNA_PDX_19948_20103",_"t")_ + 1 x_("SEA_ANC_19993_20169",_"t")_ = 5
mp_c1_BUR_PDX_10515_10681_: 1 x_("BUR_PDX_10515_10681",_"PDX_SNA_10733_10856")_ + 1 x_("BUR_PDX_10515_10681",_"PDX_LAS_11263_11390")_ = 1
mp_c1_SEA_MKE_10527_10867_: 1 x_("SEA_MKE_10527_10867",_"MKE_SEA_10939_11077")_ = 1
mp_c1_SEA_DFW_10534_10880_: 1 x_("SEA_DFW_10534_10880",_"DFW_SEA_10940_11090")_ = 1
mp_c1_MCO_SEA_10685_10895_: 1 x_("MCO_SEA_10685_10895",_"SEA_DEN_11299_11510")_ + 1 x_("MCO_SEA_10685_10895",_"SEA_ANC_11214_11362")_ + 1 x_("MCO_SEA_10685_10895",_"SEA_FAI_11156_11321")_ + 1 x_("MCO_SEA_10685_10895",_"SEA_PHX_12265_12485")_ + 1 x_("MCO_SEA_10685_10895",_"SEA_AUS_11448_11783")_ + 1 x_("MCO_SEA_10685_10895",_"SEA_SBA_10975_11105")_ + 1 x_("MCO_SEA_10685_10895",_"SEA_LAS_12090_12244")_ + 1 x_("MCO_SEA_10685_10895",_"SEA_RDM_12197_12256")_ = 1
mp_c1_PDX_SNA_10733_10856_: 1 x_("PDX_SNA_10733_10856",_"SNA_SEA_10924_11134")_ = 1
mp_c1_SNA_SEA_10924_11134_: 1 x_("SNA_SEA_10924_11134",_"SEA_LAS_12573_12699")_ + 1 x_("SNA_SEA_10924_11134",_"SEA_DEN_11299_11510")_ + 1 x_("SNA_SEA_10924_11134",_"SEA_ANC_11214_11362")_ + 1 x_("SNA_SEA_10924_11134",_"SEA_PHX_12265_12485")_ + 1 x_("SNA_SEA_10924_11134",_"SEA_TUS_12542_12765")_ + 1 x_("SNA_SEA_10924_11134",_"SEA_AUS_11448_11783")_ + 1 x_("SNA_SEA_10924_11134",_"SEA_BOS_12457_12959")_ + 1 x_("SNA_SEA_10924_11134",_"SEA_LAS_12090_12244")_ + 1 x_("SNA_SEA_10924_11134",_"SEA_RDM_12197_12256")_ = 1
mp_c1_MKE_SEA_10939_11077_: 1 x_("MKE_SEA_10939_11077",_"SEA_DEN_11299_11510")_ + 1 x_("MKE_SEA_10939_11077",_"SEA_ANC_11214_11362")_ + 1 x_("MKE_SEA_10939_11077",_"SEA_FAI_11156_11321")_ + 1 x_("MKE_SEA_10939_11077",_"SEA_PHX_12265_12485")_ + 1 x_("MKE_SEA_10939_11077",_"SEA_AUS_11448_11783")_ + 1 x_("MKE_SEA_10939_11077",_"SEA_BOS_12457_12959")_ + 1 x_("MKE_SEA_10939_11077",_"SEA_LAS_12090_12244")_ + 1 x_("MKE_SEA_10939_11077",_"SEA_RDM_12197_12256")_ = 1
mp_c1_DFW_SEA_10940_11090_: 1 x_("DFW_SEA_10940_11090",_"SEA_DEN_11299_11510")_ + 1 x_("DFW_SEA_10940_11090",_"SEA_ANC_11214_11362")_ + 1 x_("DFW_SEA_10940_11090",_"SEA_FAI_11156_11321")_ + 1 x_("DFW_SEA_10940_11090",_"SEA_PHX_12265_12485")_ + 1 x_("DFW_SEA_10940_11090",_"SEA_AUS_11448_11783")_ + 1 x_("DFW_SEA_10940_11090",_"SEA_BOS_12457_12959")_ + 1 x_("DFW_SEA_10940_11090",_"SEA_LAS_12090_12244")_ + 1 x_("DFW_SEA_10940_11090",_"SEA_RDM_12197_12256")_ = 1
mp_c1_SEA_SBA_10975_11105_: 1 x_("SEA_SBA_10975_11105",_"SBA_SEA_11142_11297")_ = 1
mp_c1_SBA_SEA_11142_11297_: 1 x_("SBA_SEA_11142_11297",_"SEA_LAS_12573_12699")_ + 1 x_("SBA_SEA_11142_11297",_"SEA_PHX_12265_12485")_ + 1 x_("SBA_SEA_11142_11297",_"SEA_TUS_12542_12765")_ + 1 x_("SBA_SEA_11142_11297",_"SEA_MSP_12603_12910")_ + 1 x_("SBA_SEA_11142_11297",_"SEA_AUS_11448_11783")_ + 1 x_("SBA_SEA_11142_11297",_"SEA_BOS_12457_12959")_ + 1 x_("SBA_SEA_11142_11297",_"SEA_LAS_12090_12244")_ + 1 x_("SBA_SEA_11142_11297",_"SEA_RDM_12197_12256")_ = 1
mp_c1_SEA_FAI_11156_11321_: 1 x_("SEA_FAI_11156_11321",_"FAI_SEA_11934_12211")_ = 1
mp_c1_SEA_ANC_11214_11362_: 1 x_("SEA_ANC_11214_11362",_"ANC_SEA_11872_12140")_ = 1
mp_c1_PDX_LAS_11263_11390_: 1 x_("PDX_LAS_11263_11390",_"LAS_LAX_12746_12823")_ + 1 x_("PDX_LAS_11263_11390",_"LAS_SEA_12302_12476")_ + 1 x_("PDX_LAS_11263_11390",_"LAS_SEA_12242_12410")_ = 1
mp_c1_SEA_DEN_11299_11510_: 1 x_("SEA_DEN_11299_11510",_"DEN_SEA_11899_12032")_ = 1
mp_c1_SEA_AUS_11448_11783_: 1 x_("SEA_AUS_11448_11783",_"AUS_SEA_12358_12531")_ = 1
mp_c1_ANC_SEA_11872_12140_: 1 x_("ANC_SEA_11872_12140",_"SEA_LAS_12573_12699")_ + 1 x_("ANC_SEA_11872_12140",_"SEA_TPA_13536_14022")_ + 1 x_("ANC_SEA_11872_12140",_"SEA_PHX_12265_12485")_ + 1 x_("ANC_SEA_11872_12140",_"SEA_TUS_12542_12765")_ + 1 x_("ANC_SEA_11872_12140",_"SEA_MSP_12603_12910")_ + 1 x_("ANC_SEA_11872_12140",_"SEA_BOS_12457_12959")_ + 1 x_("ANC_SEA_11872_12140",_"SEA_RDM_12197_12256")_ + 1 x_("ANC_SEA_11872_12140",_"SEA_PHX_12739_12962")_ = 1
mp_c1_DEN_SEA_11899_12032_: 1 x_("DEN_SEA_11899_12032",_"SEA_LAS_12573_12699")_ + 1 x_("DEN_SEA_11899_12032",_"SEA_PHX_12265_12485")_ + 1 x_("DEN_SEA_11899_12032",_"SEA_TUS_12542_12765")_ + 1 x_("DEN_SEA_11899_12032",_"SEA_MSP_12603_12910")_ + 1 x_("DEN_SEA_11899_12032",_"SEA_BOS_12457_12959")_ + 1 x_("DEN_SEA_11899_12032",_"SEA_LAS_12090_12244")_ + 1 x_("DEN_SEA_11899_12032",_"SEA_RDM_12197_12256")_ + 1 x_("DEN_SEA_11899_12032",_"SEA_PHX_12739_12962")_ = 1
mp_c1_FAI_SEA_11934_12211_: 1 x_("FAI_SEA_11934_12211",_"SEA_LAS_12573_12699")_ + 1 x_("FAI_SEA_11934_12211",_"SEA_TPA_13536_14022")_ + 1 x_("FAI_SEA_11934_12211",_"SEA_PHX_12265_12485")_ + 1 x_("FAI_SEA_11934_12211",_"SEA_TUS_12542_12765")_ + 1 x_("FAI_SEA_11934_12211",_"SEA_SMF_13599_13694")_ + 1 x_("FAI_SEA_11934_12211",_"SEA_MSP_12603_12910")_ + 1 x_("FAI_SEA_11934_12211",_"SEA_GEG_13644_13713")_ + 1 x_("FAI_SEA_11934_12211",_"SEA_BOS_12457_12959")_ + 1 x_("FAI_SEA_11934_12211",_"SEA_PHX_12739_12962")_ = 1
mp_c1_SEA_LAS_12090_12244_: 1 x_("SEA_LAS_12090_12244",_"LAS_LAX_12746_12823")_ + 1 x_("SEA_LAS_12090_12244",_"LAS_SEA_12302_12476")_ = 1
mp_c1_SEA_RDM_12197_12256_: 1 x_("SEA_RDM_12197_12256",_"RDM_SEA_12319_12399")_ = 1
mp_c1_LAS_SEA_12242_12410_: 1 x_("LAS_SEA_12242_12410",_"SEA_LAS_12573_12699")_ + 1 x_("LAS_SEA_12242_12410",_"SEA_TPA_13536_14022")_ + 1 x_("LAS_SEA_12242_12410",_"SEA_TUS_12542_12765")_ + 1 x_("LAS_SEA_12242_12410",_"SEA_SMF_13599_13694")_ + 1 x_("LAS_SEA_12242_12410",_"SEA_MSP_12603_12910")_ + 1 x_("LAS_SEA_12242_12410",_"SEA_GEG_13644_13713")_ + 1 x_("LAS_SEA_12242_12410",_"SEA_BOS_12457_12959")_ + 1 x_("LAS_SEA_12242_12410",_"SEA_SJC_13777_13892")_ + 1 x_("LAS_SEA_12242_12410",_"SEA_PHX_12739_12962")_ = 1
mp_c1_SEA_PHX_12265_12485_: 1 x_("SEA_PHX_12265_12485",_"PHX_SEA_13313_13468")_ + 1 x_("SEA_PHX_12265_12485",_"PHX_SEA_12540_12679")_ = 1
mp_c1_LAS_SEA_12302_12476_: 1 x_("LAS_SEA_12302_12476",_"SEA_LAS_12573_12699")_ + 1 x_("LAS_SEA_12302_12476",_"SEA_TPA_13536_14022")_ + 1 x_("LAS_SEA_12302_12476",_"SEA_TUS_12542_12765")_ + 1 x_("LAS_SEA_12302_12476",_"SEA_SMF_13599_13694")_ + 1 x_("LAS_SEA_12302_12476",_"SEA_MSP_12603_12910")_ + 1 x_("LAS_SEA_12302_12476",_"SEA_GEG_13889_13953")_ + 1 x_("LAS_SEA_12302_12476",_"SEA_GEG_13644_13713")_ + 1 x_("LAS_SEA_12302_12476",_"SEA_SJC_13777_13892")_ + 1 x_("LAS_SEA_12302_12476",_"SEA_PHX_12739_12962")_ = 1
mp_c1_RDM_SEA_12319_12399_: 1 x_("RDM_SEA_12319_12399",_"SEA_LAS_12573_12699")_ + 1 x_("RDM_SEA_12319_12399",_"SEA_TPA_13536_14022")_ + 1 x_("RDM_SEA_12319_12399",_"SEA_TUS_12542_12765")_ + 1 x_("RDM_SEA_12319_12399",_"SEA_SMF_13599_13694")_ + 1 x_("RDM_SEA_12319_12399",_"SEA_MSP_12603_12910")_ + 1 x_("RDM_SEA_12319_12399",_"SEA_GEG_13644_13713")_ + 1 x_("RDM_SEA_12319_12399",_"SEA_BOS_12457_12959")_ + 1 x_("RDM_SEA_12319_12399",_"SEA_SJC_13777_13892")_ + 1 x_("RDM_SEA_12319_12399",_"SEA_PHX_12739_12962")_ = 1
mp_c1_AUS_SEA_12358_12531_: 1 x_("AUS_SEA_12358_12531",_"SEA_LAS_12573_12699")_ + 1 x_("AUS_SEA_12358_12531",_"SEA_TPA_13536_14022")_ + 1 x_("AUS_SEA_12358_12531",_"SEA_SMF_13599_13694")_ + 1 x_("AUS_SEA_12358_12531",_"SEA_MSP_12603_12910")_ + 1 x_("AUS_SEA_12358_12531",_"SEA_SNA_13947_14092")_ + 1 x_("AUS_SEA_12358_12531",_"SEA_GEG_13889_13953")_ + 1 x_("AUS_SEA_12358_12531",_"SEA_GEG_13644_13713")_ + 1 x_("AUS_SEA_12358_12531",_"SEA_SJC_13777_13892")_ + 1 x_("AUS_SEA_12358_12531",_"SEA_PHX_12739_12962")_ = 1
mp_c1_SEA_BOS_12457_12959_: 1 x_("SEA_BOS_12457_12959",_"BOS_SEA_13423_13580")_ = 1
mp_c1_PHX_SEA_12540_12679_: 1 x_("PHX_SEA_12540_12679",_"SEA_TPA_13536_14022")_ + 1 x_("PHX_SEA_12540_12679",_"SEA_SMF_13599_13694")_ + 1 x_("PHX_SEA_12540_12679",_"SEA_SNA_13947_14092")_ + 1 x_("PHX_SEA_12540_12679",_"SEA_GEG_13889_13953")_ + 1 x_("PHX_SEA_12540_12679",_"SEA_GEG_13644_13713")_ + 1 x_("PHX_SEA_12540_12679",_"SEA_SJC_13777_13892")_ + 1 x_("PHX_SEA_12540_12679",_"SEA_PHX_12739_12962")_ = 1
mp_c1_SEA_TUS_12542_12765_: 1 x_("SEA_TUS_12542_12765",_"TUS_SEA_13560_13715")_ = 1
mp_c1_SEA_LAS_12573_12699_: 1 x_("SEA_LAS_12573_12699",_"LAS_LAX_12746_12823")_ = 1
mp_c1_SEA_MSP_12603_12910_: 1 x_("SEA_MSP_12603_12910",_"MSP_SEA_13375_13512")_ = 1
mp_c1_SEA_PHX_12739_12962_: 1 x_("SEA_PHX_12739_12962",_"PHX_SEA_13313_13468")_ = 1
mp_c1_LAS_LAX_12746_12823_: 1 x_("LAS_LAX_12746_12823",_"LAX_HNL_13385_13624")_ = 1
mp_c1_PHX_SEA_13313_13468_: 1 x_("PHX_SEA_13313_13468",_"SEA_TPA_13536_14022")_ + 1 x_("PHX_SEA_13313_13468",_"SEA_SMF_13599_13694")_ + 1 x_("PHX_SEA_13313_13468",_"SEA_MSP_14135_14466")_ + 1 x_("PHX_SEA_13313_13468",_"SEA_JNU_14137_14272")_ + 1 x_("PHX_SEA_13313_13468",_"SEA_SNA_13947_14092")_ + 1 x_("PHX_SEA_13313_13468",_"SEA_AUS_14856_15227")_ + 1 x_("PHX_SEA_13313_13468",_"SEA_GEG_13889_13953")_ + 1 x_("PHX_SEA_13313_13468",_"SEA_GEG_13644_13713")_ + 1 x_("PHX_SEA_13313_13468",_"SEA_MSY_14351_14725")_ + 1 x_("PHX_SEA_13313_13468",_"SEA_FAI_14896_15115")_ + 1 x_("PHX_SEA_13313_13468",_"SEA_SJC_13777_13892")_ = 1
mp_c1_MSP_SEA_13375_13512_: 1 x_("MSP_SEA_13375_13512",_"SEA_SMF_13599_13694")_ + 1 x_("MSP_SEA_13375_13512",_"SEA_MSP_14135_14466")_ + 1 x_("MSP_SEA_13375_13512",_"SEA_JNU_14137_14272")_ + 1 x_("MSP_SEA_13375_13512",_"SEA_SNA_13947_14092")_ + 1 x_("MSP_SEA_13375_13512",_"SEA_AUS_14856_15227")_ + 1 x_("MSP_SEA_13375_13512",_"SEA_GEG_13889_13953")_ + 1 x_("MSP_SEA_13375_13512",_"SEA_GEG_13644_13713")_ + 1 x_("MSP_SEA_13375_13512",_"SEA_MSY_14351_14725")_ + 1 x_("MSP_SEA_13375_13512",_"SEA_FAI_14896_15115")_ + 1 x_("MSP_SEA_13375_13512",_"SEA_SJC_13777_13892")_ = 1
mp_c1_LAX_HNL_13385_13624_: 1 x_("LAX_HNL_13385_13624",_"HNL_PDX_13699_14142")_ = 1
mp_c1_BOS_SEA_13423_13580_: 1 x_("BOS_SEA_13423_13580",_"SEA_MSP_14135_14466")_ + 1 x_("BOS_SEA_13423_13580",_"SEA_JNU_14137_14272")_ + 1 x_("BOS_SEA_13423_13580",_"SEA_SNA_13947_14092")_ + 1 x_("BOS_SEA_13423_13580",_"SEA_AUS_14856_15227")_ + 1 x_("BOS_SEA_13423_13580",_"SEA_ORD_15012_15365")_ + 1 x_("BOS_SEA_13423_13580",_"SEA_GEG_13889_13953")_ + 1 x_("BOS_SEA_13423_13580",_"SEA_GEG_13644_13713")_ + 1 x_("BOS_SEA_13423_13580",_"SEA_MSY_14351_14725")_ + 1 x_("BOS_SEA_13423_13580",_"SEA_FAI_14896_15115")_ + 1 x_("BOS_SEA_13423_13580",_"SEA_SJC_13777_13892")_ = 1
mp_c1_SEA_TPA_13536_14022_: 1 x_("SEA_TPA_13536_14022",_"TPA_SEA_14080_14280")_ = 1
mp_c1_TUS_SEA_13560_13715_: 1 x_("TUS_SEA_13560_13715",_"SEA_MSP_14135_14466")_ + 1 x_("TUS_SEA_13560_13715",_"SEA_JNU_14137_14272")_ + 1 x_("TUS_SEA_13560_13715",_"SEA_SNA_13947_14092")_ + 1 x_("TUS_SEA_13560_13715",_"SEA_MSY_15060_15437")_ + 1 x_("TUS_SEA_13560_13715",_"SEA_AUS_14856_15227")_ + 1 x_("TUS_SEA_13560_13715",_"SEA_ORD_15012_15365")_ + 1 x_("TUS_SEA_13560_13715",_"SEA_GEG_13889_13953")_ + 1 x_("TUS_SEA_13560_13715",_"SEA_MSY_14351_14725")_ + 1 x_("TUS_SEA_13560_13715",_"SEA_FAI_14896_15115")_ + 1 x_("TUS_SEA_13560_13715",_"SEA_SJC_13777_13892")_ = 1
mp_c1_SEA_SMF_13599_13694_: 1 x_("SEA_SMF_13599_13694",_"SMF_SEA_13740_13859")_ = 1
mp_c1_SEA_GEG_13644_13713_: 1 x_("SEA_GEG_13644_13713",_"GEG_SEA_14008_14081")_ + 1 x_("SEA_GEG_13644_13713",_"GEG_SEA_13772_13832")_ = 1
mp_c1_HNL_PDX_13699_14142_: 1 x_("HNL_PDX_13699_14142",_"PDX_SEA_14715_14768")_ = 1
mp_c1_SMF_SEA_13740_13859_: 1 x_("SMF_SEA_13740_13859",_"SEA_MSP_14135_14466")_ + 1 x_("SMF_SEA_13740_13859",_"SEA_JNU_14137_14272")_ + 1 x_("SMF_SEA_13740_13859",_"SEA_SNA_13947_14092")_ + 1 x_("SMF_SEA_13740_13859",_"SEA_MSY_15060_15437")_ + 1 x_("SMF_SEA_13740_13859",_"SEA_AUS_14856_15227")_ + 1 x_("SMF_SEA_13740_13859",_"SEA_ORD_15012_15365")_ + 1 x_("SMF_SEA_13740_13859",_"SEA_MSY_14351_14725")_ + 1 x_("SMF_SEA_13740_13859",_"SEA_FAI_14896_15115")_ + 1 x_("SMF_SEA_13740_13859",_"SEA_BZN_15162_15306")_ = 1
mp_c1_GEG_SEA_13772_13832_: 1 x_("GEG_SEA_13772_13832",_"SEA_MSP_14135_14466")_ + 1 x_("GEG_SEA_13772_13832",_"SEA_JNU_14137_14272")_ + 1 x_("GEG_SEA_13772_13832",_"SEA_SNA_13947_14092")_ + 1 x_("GEG_SEA_13772_13832",_"SEA_MSY_15060_15437")_ + 1 x_("GEG_SEA_13772_13832",_"SEA_AUS_14856_15227")_ + 1 x_("GEG_SEA_13772_13832",_"SEA_ORD_15012_15365")_ + 1 x_("GEG_SEA_13772_13832",_"SEA_GEG_13889_13953")_ + 1 x_("GEG_SEA_13772_13832",_"SEA_MSY_14351_14725")_ + 1 x_("GEG_SEA_13772_13832",_"SEA_FAI_14896_15115")_ + 1 x_("GEG_SEA_13772_13832",_"SEA_BZN_15162_15306")_ = 1
mp_c1_SEA_SJC_13777_13892_: 1 x_("SEA_SJC_13777_13892",_"SJC_SEA_13949_14086")_ = 1
mp_c1_SEA_GEG_13889_13953_: 1 x_("SEA_GEG_13889_13953",_"GEG_SEA_14008_14081")_ = 1
mp_c1_SEA_SNA_13947_14092_: 1 x_("SEA_SNA_13947_14092",_"SNA_SEA_14146_14321")_ = 1
mp_c1_SJC_SEA_13949_14086_: 1 x_("SJC_SEA_13949_14086",_"SEA_TUS_15472_15686")_ + 1 x_("SJC_SEA_13949_14086",_"SEA_SNA_15482_15629")_ + 1 x_("SJC_SEA_13949_14086",_"SEA_MSP_14135_14466")_ + 1 x_("SJC_SEA_13949_14086",_"SEA_JNU_14137_14272")_ + 1 x_("SJC_SEA_13949_14086",_"SEA_MSY_15060_15437")_ + 1 x_("SJC_SEA_13949_14086",_"SEA_AUS_14856_15227")_ + 1 x_("SJC_SEA_13949_14086",_"SEA_ORD_15012_15365")_ + 1 x_("SJC_SEA_13949_14086",_"SEA_MSY_14351_14725")_ + 1 x_("SJC_SEA_13949_14086",_"SEA_FAI_14896_15115")_ + 1 x_("SJC_SEA_13949_14086",_"SEA_BZN_15162_15306")_ = 1
mp_c1_GEG_SEA_14008_14081_: 1 x_("GEG_SEA_14008_14081",_"SEA_TUS_15472_15686")_ + 1 x_("GEG_SEA_14008_14081",_"SEA_SNA_15482_15629")_ + 1 x_("GEG_SEA_14008_14081",_"SEA_MSP_14135_14466")_ + 1 x_("GEG_SEA_14008_14081",_"SEA_JNU_14137_14272")_ + 1 x_("GEG_SEA_14008_14081",_"SEA_MSY_15060_15437")_ + 1 x_("GEG_SEA_14008_14081",_"SEA_AUS_14856_15227")_ + 1 x_("GEG_SEA_14008_14081",_"SEA_ORD_15012_15365")_ + 1 x_("GEG_SEA_14008_14081",_"SEA_MSY_14351_14725")_ + 1 x_("GEG_SEA_14008_14081",_"SEA_FAI_14896_15115")_ + 1 x_("GEG_SEA_14008_14081",_"SEA_BZN_15162_15306")_ = 1
mp_c1_TPA_SEA_14080_14280_: 1 x_("TPA_SEA_14080_14280",_"SEA_TUS_15472_15686")_ + 1 x_("TPA_SEA_14080_14280",_"SEA_SNA_15482_15629")_ + 1 x_("TPA_SEA_14080_14280",_"SEA_MSY_15060_15437")_ + 1 x_("TPA_SEA_14080_14280",_"SEA_AUS_14856_15227")_ + 1 x_("TPA_SEA_14080_14280",_"SEA_ORD_15012_15365")_ + 1 x_("TPA_SEA_14080_14280",_"SEA_MSY_14351_14725")_ + 1 x_("TPA_SEA_14080_14280",_"SEA_FAI_14896_15115")_ + 1 x_("TPA_SEA_14080_14280",_"SEA_BZN_15162_15306")_ = 1
mp_c1_SEA_MSP_14135_14466_: 1 x_("SEA_MSP_14135_14466",_"MSP_SEA_14826_14932")_ = 1
mp_c1_SEA_JNU_14137_14272_: 1 x_("SEA_JNU_14137_14272",_"JNU_SEA_14935_15110")_ = 1
mp_c1_SNA_SEA_14146_14321_: 1 x_("SNA_SEA_14146_14321",_"SEA_TUS_15472_15686")_ + 1 x_("SNA_SEA_14146_14321",_"SEA_SNA_15482_15629")_ + 1 x_("SNA_SEA_14146_14321",_"SEA_MSY_15060_15437")_ + 1 x_("SNA_SEA_14146_14321",_"SEA_AUS_14856_15227")_ + 1 x_("SNA_SEA_14146_14321",_"SEA_ORD_15012_15365")_ + 1 x_("SNA_SEA_14146_14321",_"SEA_FAI_14896_15115")_ + 1 x_("SNA_SEA_14146_14321",_"SEA_BZN_15162_15306")_ = 1
mp_c1_SEA_MSY_14351_14725_: 1 x_("SEA_MSY_14351_14725",_"MSY_SEA_14807_15011")_ + 1 x_("SEA_MSY_14351_14725",_"MSY_SEA_15510_15716")_ = 1
mp_c1_PDX_SEA_14715_14768_: 1 x_("PDX_SEA_14715_14768",_"SEA_TUS_15472_15686")_ + 1 x_("PDX_SEA_14715_14768",_"SEA_SNA_15482_15629")_ + 1 x_("PDX_SEA_14715_14768",_"SEA_MSY_15060_15437")_ + 1 x_("PDX_SEA_14715_14768",_"SEA_AUS_14856_15227")_ + 1 x_("PDX_SEA_14715_14768",_"SEA_ORD_15012_15365")_ + 1 x_("PDX_SEA_14715_14768",_"SEA_FAI_14896_15115")_ + 1 x_("PDX_SEA_14715_14768",_"SEA_BZN_15162_15306")_ = 1
mp_c1_MSY_SEA_14807_15011_: 1 x_("MSY_SEA_14807_15011",_"SEA_TUS_15472_15686")_ + 1 x_("MSY_SEA_14807_15011",_"SEA_PSP_16272_16438")_ + 1 x_("MSY_SEA_14807_15011",_"SEA_SNA_16306_16484")_ + 1 x_("MSY_SEA_14807_15011",_"SEA_SNA_15482_15629")_ + 1 x_("MSY_SEA_14807_15011",_"SEA_MSY_15060_15437")_ + 1 x_("MSY_SEA_14807_15011",_"SEA_BZN_15162_15306")_ = 1
mp_c1_MSP_SEA_14826_14932_: 1 x_("MSP_SEA_14826_14932",_"SEA_TUS_15472_15686")_ + 1 x_("MSP_SEA_14826_14932",_"SEA_PSP_16272_16438")_ + 1 x_("MSP_SEA_14826_14932",_"SEA_SNA_16306_16484")_ + 1 x_("MSP_SEA_14826_14932",_"SEA_SNA_15482_15629")_ + 1 x_("MSP_SEA_14826_14932",_"SEA_MSY_15060_15437")_ + 1 x_("MSP_SEA_14826_14932",_"SEA_ORD_15012_15365")_ + 1 x_("MSP_SEA_14826_14932",_"SEA_BZN_15162_15306")_ = 1
mp_c1_SEA_AUS_14856_15227_: 1 x_("SEA_AUS_14856_15227",_"AUS_SAN_15307_15389")_ = 1
mp_c1_SEA_FAI_14896_15115_: 1 x_("SEA_FAI_14896_15115",_"FAI_SEA_15162_15418")_ = 1
mp_c1_JNU_SEA_14935_15110_: 1 x_("JNU_SEA_14935_15110",_"SEA_TUS_15472_15686")_ + 1 x_("JNU_SEA_14935_15110",_"SEA_PSP_16272_16438")_ + 1 x_("JNU_SEA_14935_15110",_"SEA_SNA_16306_16484")_ + 1 x_("JNU_SEA_14935_15110",_"SEA_SNA_15482_15629")_ + 1 x_("JNU_SEA_14935_15110",_"SEA_BZN_15162_15306")_ = 1
mp_c1_SEA_ORD_15012_15365_: 1 x_("SEA_ORD_15012_15365",_"ORD_SEA_15462_15662")_ = 1
mp_c1_SEA_MSY_15060_15437_: 1 x_("SEA_MSY_15060_15437",_"MSY_SEA_15510_15716")_ = 1
mp_c1_SEA_BZN_15162_15306_: 1 x_("SEA_BZN_15162_15306",_"BZN_SEA_15356_15417")_ = 1
mp_c1_FAI_SEA_15162_15418_: 1 x_("FAI_SEA_15162_15418",_"SEA_GEG_16768_16829")_ + 1 x_("FAI_SEA_15162_15418",_"SEA_BOI_16599_16734")_ + 1 x_("FAI_SEA_15162_15418",_"SEA_TUS_15472_15686")_ + 1 x_("FAI_SEA_15162_15418",_"SEA_PSP_16272_16438")_ + 1 x_("FAI_SEA_15162_15418",_"SEA_SNA_16306_16484")_ + 1 x_("FAI_SEA_15162_15418",_"SEA_SNA_15482_15629")_ + 1 x_("FAI_SEA_15162_15418",_"SEA_ABQ_16745_16951")_ + 1 x_("FAI_SEA_15162_15418",_"SEA_BZN_16600_16757")_ = 1
mp_c1_AUS_SAN_15307_15389_: 1 x_("AUS_SAN_15307_15389",_"SAN_PDX_15444_15615")_ = 1
mp_c1_BZN_SEA_15356_15417_: 1 x_("BZN_SEA_15356_15417",_"SEA_GEG_16768_16829")_ + 1 x_("BZN_SEA_15356_15417",_"SEA_BOI_16599_16734")_ + 1 x_("BZN_SEA_15356_15417",_"SEA_TUS_15472_15686")_ + 1 x_("BZN_SEA_15356_15417",_"SEA_PSP_16272_16438")_ + 1 x_("BZN_SEA_15356_15417",_"SEA_SNA_16306_16484")_ + 1 x_("BZN_SEA_15356_15417",_"SEA_SNA_15482_15629")_ + 1 x_("BZN_SEA_15356_15417",_"SEA_ABQ_16745_16951")_ + 1 x_("BZN_SEA_15356_15417",_"SEA_BZN_16600_16757")_ = 1
mp_c1_SAN_PDX_15444_15615_: 1 x_("SAN_PDX_15444_15615",_"PDX_ANC_15677_15865")_ + 1 x_("SAN_PDX_15444_15615",_"PDX_AUS_16552_16890")_ = 1
mp_c1_ORD_SEA_15462_15662_: 1 x_("ORD_SEA_15462_15662",_"SEA_GEG_16768_16829")_ + 1 x_("ORD_SEA_15462_15662",_"SEA_DEN_17042_17244")_ + 1 x_("ORD_SEA_15462_15662",_"SEA_BOI_16599_16734")_ + 1 x_("ORD_SEA_15462_15662",_"SEA_PSP_16272_16438")_ + 1 x_("ORD_SEA_15462_15662",_"SEA_SNA_16306_16484")_ + 1 x_("ORD_SEA_15462_15662",_"SEA_SNA_16942_17083")_ + 1 x_("ORD_SEA_15462_15662",_"SEA_ABQ_16745_16951")_ + 1 x_("ORD_SEA_15462_15662",_"SEA_ATL_16907_17347")_ + 1 x_("ORD_SEA_15462_15662",_"SEA_BZN_16600_16757")_ = 1
mp_c1_SEA_TUS_15472_15686_: 1 x_("SEA_TUS_15472_15686",_"TUS_SEA_16376_16543")_ = 1
mp_c1_SEA_SNA_15482_15629_: 1 x_("SEA_SNA_15482_15629",_"SNA_SEA_16531_16707")_ + 1 x_("SEA_SNA_15482_15629",_"SNA_SEA_16357_16540")_ = 1
mp_c1_MSY_SEA_15510_15716_: 1 x_("MSY_SEA_15510_15716",_"SEA_GEG_16768_16829")_ + 1 x_("MSY_SEA_15510_15716",_"SEA_DEN_17042_17244")_ + 1 x_("MSY_SEA_15510_15716",_"SEA_BOI_16599_16734")_ + 1 x_("MSY_SEA_15510_15716",_"SEA_PSP_16272_16438")_ + 1 x_("MSY_SEA_15510_15716",_"SEA_SNA_16306_16484")_ + 1 x_("MSY_SEA_15510_15716",_"SEA_SNA_16942_17083")_ + 1 x_("MSY_SEA_15510_15716",_"SEA_ABQ_16745_16951")_ + 1 x_("MSY_SEA_15510_15716",_"SEA_ATL_16907_17347")_ + 1 x_("MSY_SEA_15510_15716",_"SEA_BZN_16600_16757")_ = 1
mp_c1_PDX_ANC_15677_15865_: 1 x_("PDX_ANC_15677_15865",_"ANC_LAX_15928_16264")_ = 1
mp_c1_ANC_LAX_15928_16264_: 1 x_("ANC_LAX_15928_16264",_"LAX_PDX_16332_16496")_ = 1
mp_c1_SEA_PSP_16272_16438_: 1 x_("SEA_PSP_16272_16438",_"PSP_SEA_16489_16677")_ = 1
mp_c1_SEA_SNA_16306_16484_: 1 x_("SEA_SNA_16306_16484",_"SNA_SEA_16531_16707")_ + 1 x_("SEA_SNA_16306_16484",_"SNA_SEA_17817_17993")_ = 1
mp_c1_LAX_PDX_16332_16496_: 1 x_("LAX_PDX_16332_16496",_"PDX_AUS_16552_16890")_ = 1
mp_c1_SNA_SEA_16357_16540_: 1 x_("SNA_SEA_16357_16540",_"SEA_GEG_16768_16829")_ + 1 x_("SNA_SEA_16357_16540",_"SEA_PSP_17701_17847")_ + 1 x_("SNA_SEA_16357_16540",_"SEA_DEN_17042_17244")_ + 1 x_("SNA_SEA_16357_16540",_"SEA_BOI_16599_16734")_ + 1 x_("SNA_SEA_16357_16540",_"SEA_TPA_17215_17682")_ + 1 x_("SNA_SEA_16357_16540",_"SEA_BOI_17952_18088")_ + 1 x_("SNA_SEA_16357_16540",_"SEA_SNA_16942_17083")_ + 1 x_("SNA_SEA_16357_16540",_"SEA_ABQ_16745_16951")_ + 1 x_("SNA_SEA_16357_16540",_"SEA_ATL_16907_17347")_ + 1 x_("SNA_SEA_16357_16540",_"SEA_BZN_16600_16757")_ = 1
mp_c1_TUS_SEA_16376_16543_: 1 x_("TUS_SEA_16376_16543",_"SEA_GEG_16768_16829")_ + 1 x_("TUS_SEA_16376_16543",_"SEA_PSP_17701_17847")_ + 1 x_("TUS_SEA_16376_16543",_"SEA_DEN_17042_17244")_ + 1 x_("TUS_SEA_16376_16543",_"SEA_BOI_16599_16734")_ + 1 x_("TUS_SEA_16376_16543",_"SEA_TPA_17215_17682")_ + 1 x_("TUS_SEA_16376_16543",_"SEA_BOI_17952_18088")_ + 1 x_("TUS_SEA_16376_16543",_"SEA_SNA_16942_17083")_ + 1 x_("TUS_SEA_16376_16543",_"SEA_ABQ_16745_16951")_ + 1 x_("TUS_SEA_16376_16543",_"SEA_ATL_16907_17347")_ + 1 x_("TUS_SEA_16376_16543",_"SEA_BZN_16600_16757")_ = 1
mp_c1_PSP_SEA_16489_16677_: 1 x_("PSP_SEA_16489_16677",_"SEA_BNA_18036_18399")_ + 1 x_("PSP_SEA_16489_16677",_"SEA_GEG_16768_16829")_ + 1 x_("PSP_SEA_16489_16677",_"SEA_PSP_17701_17847")_ + 1 x_("PSP_SEA_16489_16677",_"SEA_DEN_17042_17244")_ + 1 x_("PSP_SEA_16489_16677",_"SEA_TPA_17215_17682")_ + 1 x_("PSP_SEA_16489_16677",_"SEA_BOI_17952_18088")_ + 1 x_("PSP_SEA_16489_16677",_"SEA_SNA_16942_17083")_ + 1 x_("PSP_SEA_16489_16677",_"SEA_ABQ_16745_16951")_ + 1 x_("PSP_SEA_16489_16677",_"SEA_PHX_18088_18307")_ + 1 x_("PSP_SEA_16489_16677",_"SEA_ATL_16907_17347")_ + 1 x_("PSP_SEA_16489_16677",_"SEA_BOS_18088_18571")_ = 1
mp_c1_SNA_SEA_16531_16707_: 1 x_("SNA_SEA_16531_16707",_"SEA_BNA_18036_18399")_ + 1 x_("SNA_SEA_16531_16707",_"SEA_GEG_16768_16829")_ + 1 x_("SNA_SEA_16531_16707",_"SEA_PSP_17701_17847")_ + 1 x_("SNA_SEA_16531_16707",_"SEA_DEN_17042_17244")_ + 1 x_("SNA_SEA_16531_16707",_"SEA_TPA_17215_17682")_ + 1 x_("SNA_SEA_16531_16707",_"SEA_BOI_17952_18088")_ + 1 x_("SNA_SEA_16531_16707",_"SEA_SNA_16942_17083")_ + 1 x_("SNA_SEA_16531_16707",_"SEA_TUS_18139_18362")_ + 1 x_("SNA_SEA_16531_16707",_"SEA_ABQ_16745_16951")_ + 1 x_("SNA_SEA_16531_16707",_"SEA_PHX_18088_18307")_ + 1 x_("SNA_SEA_16531_16707",_"SEA_ATL_16907_17347")_ + 1 x_("SNA_SEA_16531_16707",_"SEA_BOS_18088_18571")_ = 1
mp_c1_PDX_AUS_16552_16890_: 1 x_("PDX_AUS_16552_16890",_"AUS_SEA_16960_17132")_ = 1
mp_c1_SEA_BOI_16599_16734_: 1 x_("SEA_BOI_16599_16734",_"BOI_SEA_16792_16828")_ + 1 x_("SEA_BOI_16599_16734",_"BOI_SEA_18158_18240")_ = 1
mp_c1_SEA_BZN_16600_16757_: 1 x_("SEA_BZN_16600_16757",_"BZN_SEA_16802_16891")_ = 1
mp_c1_SEA_ABQ_16745_16951_: 1 x_("SEA_ABQ_16745_16951",_"ABQ_SEA_17007_17164")_ = 1
mp_c1_SEA_GEG_16768_16829_: 1 x_("SEA_GEG_16768_16829",_"GEG_SEA_16891_16961")_ = 1
mp_c1_BOI_SEA_16792_16828_: 1 x_("BOI_SEA_16792_16828",_"SEA_BNA_18036_18399")_ + 1 x_("BOI_SEA_16792_16828",_"SEA_PSP_17701_17847")_ + 1 x_("BOI_SEA_16792_16828",_"SEA_DEN_17042_17244")_ + 1 x_("BOI_SEA_16792_16828",_"SEA_TPA_17215_17682")_ + 1 x_("BOI_SEA_16792_16828",_"SEA_BOI_17952_18088")_ + 1 x_("BOI_SEA_16792_16828",_"SEA_SNA_16942_17083")_ + 1 x_("BOI_SEA_16792_16828",_"SEA_TUS_18139_18362")_ + 1 x_("BOI_SEA_16792_16828",_"SEA_PHX_18088_18307")_ + 1 x_("BOI_SEA_16792_16828",_"SEA_ATL_16907_17347")_ + 1 x_("BOI_SEA_16792_16828",_"SEA_BOS_18088_18571")_ = 1
mp_c1_BZN_SEA_16802_16891_: 1 x_("BZN_SEA_16802_16891",_"SEA_BNA_18036_18399")_ + 1 x_("BZN_SEA_16802_16891",_"SEA_PSP_17701_17847")_ + 1 x_("BZN_SEA_16802_16891",_"SEA_DEN_17042_17244")_ + 1 x_("BZN_SEA_16802_16891",_"SEA_TPA_17215_17682")_ + 1 x_("BZN_SEA_16802_16891",_"SEA_BOI_17952_18088")_ + 1 x_("BZN_SEA_16802_16891",_"SEA_SNA_16942_17083")_ + 1 x_("BZN_SEA_16802_16891",_"SEA_TUS_18139_18362")_ + 1 x_("BZN_SEA_16802_16891",_"SEA_PHX_18088_18307")_ + 1 x_("BZN_SEA_16802_16891",_"SEA_BOS_18088_18571")_ = 1
mp_c1_GEG_SEA_16891_16961_: 1 x_("GEG_SEA_16891_16961",_"SEA_BNA_18036_18399")_ + 1 x_("GEG_SEA_16891_16961",_"SEA_PSP_17701_17847")_ + 1 x_("GEG_SEA_16891_16961",_"SEA_DEN_17042_17244")_ + 1 x_("GEG_SEA_16891_16961",_"SEA_TPA_17215_17682")_ + 1 x_("GEG_SEA_16891_16961",_"SEA_BOI_17952_18088")_ + 1 x_("GEG_SEA_16891_16961",_"SEA_TUS_18139_18362")_ + 1 x_("GEG_SEA_16891_16961",_"SEA_PHX_18088_18307")_ + 1 x_("GEG_SEA_16891_16961",_"SEA_BOS_18088_18571")_ = 1
mp_c1_SEA_ATL_16907_17347_: 1 x_("SEA_ATL_16907_17347",_"ATL_SEA_17695_17854")_ = 1
mp_c1_SEA_SNA_16942_17083_: 1 x_("SEA_SNA_16942_17083",_"SNA_SEA_17817_17993")_ = 1
mp_c1_AUS_SEA_16960_17132_: 1 x_("AUS_SEA_16960_17132",_"SEA_BNA_18036_18399")_ + 1 x_("AUS_SEA_16960_17132",_"SEA_PSP_17701_17847")_ + 1 x_("AUS_SEA_16960_17132",_"SEA_TPA_17215_17682")_ + 1 x_("AUS_SEA_16960_17132",_"SEA_BOI_17952_18088")_ + 1 x_("AUS_SEA_16960_17132",_"SEA_TUS_18139_18362")_ + 1 x_("AUS_SEA_16960_17132",_"SEA_PHX_18088_18307")_ + 1 x_("AUS_SEA_16960_17132",_"SEA_BOS_18088_18571")_ = 1
mp_c1_ABQ_SEA_17007_17164_: 1 x_("ABQ_SEA_17007_17164",_"SEA_BNA_18036_18399")_ + 1 x_("ABQ_SEA_17007_17164",_"SEA_PSP_17701_17847")_ + 1 x_("ABQ_SEA_17007_17164",_"SEA_TPA_17215_17682")_ + 1 x_("ABQ_SEA_17007_17164",_"SEA_BOI_17952_18088")_ + 1 x_("ABQ_SEA_17007_17164",_"SEA_TUS_18139_18362")_ + 1 x_("ABQ_SEA_17007_17164",_"SEA_PHX_18088_18307")_ + 1 x_("ABQ_SEA_17007_17164",_"SEA_BOS_18088_18571")_ = 1
mp_c1_SEA_DEN_17042_17244_: 1 x_("SEA_DEN_17042_17244",_"DEN_SEA_17781_17944")_ = 1
mp_c1_SEA_TPA_17215_17682_: 1 x_("SEA_TPA_17215_17682",_"TPA_SEA_17773_17981")_ = 1
mp_c1_ATL_SEA_17695_17854_: 1 x_("ATL_SEA_17695_17854",_"SEA_BNA_18036_18399")_ + 1 x_("ATL_SEA_17695_17854",_"SEA_SAN_19141_19296")_ + 1 x_("ATL_SEA_17695_17854",_"SEA_BOI_17952_18088")_ + 1 x_("ATL_SEA_17695_17854",_"SEA_TUS_18139_18362")_ + 1 x_("ATL_SEA_17695_17854",_"SEA_SNA_19091_19255")_ + 1 x_("ATL_SEA_17695_17854",_"SEA_PHX_18088_18307")_ + 1 x_("ATL_SEA_17695_17854",_"SEA_BOS_18088_18571")_ = 1
mp_c1_SEA_PSP_17701_17847_: 1 x_("SEA_PSP_17701_17847",_"PSP_SEA_17919_18082")_ = 1
mp_c1_TPA_SEA_17773_17981_: 1 x_("TPA_SEA_17773_17981",_"SEA_BNA_18036_18399")_ + 1 x_("TPA_SEA_17773_17981",_"SEA_SAN_19141_19296")_ + 1 x_("TPA_SEA_17773_17981",_"SEA_TUS_18139_18362")_ + 1 x_("TPA_SEA_17773_17981",_"SEA_SNA_19091_19255")_ + 1 x_("TPA_SEA_17773_17981",_"SEA_DAL_19410_19742")_ + 1 x_("TPA_SEA_17773_17981",_"SEA_PHX_18088_18307")_ + 1 x_("TPA_SEA_17773_17981",_"SEA_TUS_19409_19642")_ + 1 x_("TPA_SEA_17773_17981",_"SEA_BOS_18088_18571")_ = 1
mp_c1_DEN_SEA_17781_17944_: 1 x_("DEN_SEA_17781_17944",_"SEA_BNA_18036_18399")_ + 1 x_("DEN_SEA_17781_17944",_"SEA_SAN_19141_19296")_ + 1 x_("DEN_SEA_17781_17944",_"SEA_TUS_18139_18362")_ + 1 x_("DEN_SEA_17781_17944",_"SEA_SNA_19091_19255")_ + 1 x_("DEN_SEA_17781_17944",_"SEA_PHX_18088_18307")_ + 1 x_("DEN_SEA_17781_17944",_"SEA_BOS_18088_18571")_ = 1
mp_c1_SNA_SEA_17817_17993_: 1 x_("SNA_SEA_17817_17993",_"SEA_BNA_18036_18399")_ + 1 x_("SNA_SEA_17817_17993",_"SEA_SAN_19141_19296")_ + 1 x_("SNA_SEA_17817_17993",_"SEA_TUS_18139_18362")_ + 1 x_("SNA_SEA_17817_17993",_"SEA_SNA_19091_19255")_ + 1 x_("SNA_SEA_17817_17993",_"SEA_DAL_19410_19742")_ + 1 x_("SNA_SEA_17817_17993",_"SEA_PHX_18088_18307")_ + 1 x_("SNA_SEA_17817_17993",_"SEA_TUS_19409_19642")_ + 1 x_("SNA_SEA_17817_17993",_"SEA_BOS_18088_18571")_ = 1
mp_c1_PSP_SEA_17919_18082_: 1 x_("PSP_SEA_17919_18082",_"SEA_SAN_19141_19296")_ + 1 x_("PSP_SEA_17919_18082",_"SEA_TUS_18139_18362")_ + 1 x_("PSP_SEA_17919_18082",_"SEA_SNA_19091_19255")_ + 1 x_("PSP_SEA_17919_18082",_"SEA_DAL_19410_19742")_ + 1 x_("PSP_SEA_17919_18082",_"SEA_TUS_19409_19642")_ = 1
mp_c1_SEA_BOI_17952_18088_: 1 x_("SEA_BOI_17952_18088",_"BOI_SEA_18158_18240")_ = 1
mp_c1_SEA_BNA_18036_18399_: 1 x_("SEA_BNA_18036_18399",_"BNA_SEA_19135_19352")_ = 1
mp_c1_SEA_BOS_18088_18571_: 1 x_("SEA_BOS_18088_18571",_"BOS_SEA_18621_18803")_ = 1
mp_c1_SEA_PHX_18088_18307_: 1 x_("SEA_PHX_18088_18307",_"PHX_PDX_18386_18502")_ = 1
mp_c1_SEA_TUS_18139_18362_: 1 x_("SEA_TUS_18139_18362",_"TUS_SEA_19702_19837")_ + 1 x_("SEA_TUS_18139_18362",_"TUS_SEA_19192_19345")_ = 1
mp_c1_BOI_SEA_18158_18240_: 1 x_("BOI_SEA_18158_18240",_"SEA_SAN_19141_19296")_ + 1 x_("BOI_SEA_18158_18240",_"SEA_BUR_19612_19742")_ + 1 x_("BOI_SEA_18158_18240",_"SEA_SNA_19091_19255")_ + 1 x_("BOI_SEA_18158_18240",_"SEA_DAL_19410_19742")_ + 1 x_("BOI_SEA_18158_18240",_"SEA_DEN_19533_19753")_ + 1 x_("BOI_SEA_18158_18240",_"SEA_TUS_19409_19642")_ = 1
mp_c1_PHX_PDX_18386_18502_: 1 x_("PHX_PDX_18386_18502",_"PDX_SNA_19778_19909")_ + 1 x_("PHX_PDX_18386_18502",_"PDX_BUR_19379_19517")_ = 1
mp_c1_BOS_SEA_18621_18803_: 1 x_("BOS_SEA_18621_18803",_"SEA_SAN_19141_19296")_ + 1 x_("BOS_SEA_18621_18803",_"SEA_RDM_19919_19997")_ + 1 x_("BOS_SEA_18621_18803",_"SEA_BUR_19612_19742")_ + 1 x_("BOS_SEA_18621_18803",_"SEA_SNA_19091_19255")_ + 1 x_("BOS_SEA_18621_18803",_"SEA_DAL_19410_19742")_ + 1 x_("BOS_SEA_18621_18803",_"SEA_DEN_19533_19753")_ + 1 x_("BOS_SEA_18621_18803",_"SEA_ANC_19993_20169")_ + 1 x_("BOS_SEA_18621_18803",_"SEA_TUS_19409_19642")_ + 1 x_("BOS_SEA_18621_18803",_"t")_ = 1
mp_c1_SEA_SNA_19091_19255_: 1 x_("SEA_SNA_19091_19255",_"SNA_PDX_19948_20103")_ + 1 x_("SEA_SNA_19091_19255",_"SNA_SEA_19300_19472")_ + 1 x_("SEA_SNA_19091_19255",_"t")_ = 1
mp_c1_BNA_SEA_19135_19352_: 1 x_("BNA_SEA_19135_19352",_"SEA_RDM_19919_19997")_ + 1 x_("BNA_SEA_19135_19352",_"SEA_BUR_19612_19742")_ + 1 x_("BNA_SEA_19135_19352",_"SEA_DAL_19410_19742")_ + 1 x_("BNA_SEA_19135_19352",_"SEA_DEN_19533_19753")_ + 1 x_("BNA_SEA_19135_19352",_"SEA_ANC_19993_20169")_ + 1 x_("BNA_SEA_19135_19352",_"SEA_TUS_19409_19642")_ + 1 x_("BNA_SEA_19135_19352",_"t")_ = 1
mp_c1_SEA_SAN_19141_19296_: 1 x_("SEA_SAN_19141_19296",_"SAN_SEA_19361_19548")_ + 1 x_("SEA_SAN_19141_19296",_"t")_ = 1
mp_c1_TUS_SEA_19192_19345_: 1 x_("TUS_SEA_19192_19345",_"SEA_RDM_19919_19997")_ + 1 x_("TUS_SEA_19192_19345",_"SEA_BUR_19612_19742")_ + 1 x_("TUS_SEA_19192_19345",_"SEA_DAL_19410_19742")_ + 1 x_("TUS_SEA_19192_19345",_"SEA_DEN_19533_19753")_ + 1 x_("TUS_SEA_19192_19345",_"SEA_ANC_19993_20169")_ + 1 x_("TUS_SEA_19192_19345",_"SEA_TUS_19409_19642")_ + 1 x_("TUS_SEA_19192_19345",_"t")_ = 1
mp_c1_SNA_SEA_19300_19472_: 1 x_("SNA_SEA_19300_19472",_"SEA_RDM_19919_19997")_ + 1 x_("SNA_SEA_19300_19472",_"SEA_BUR_19612_19742")_ + 1 x_("SNA_SEA_19300_19472",_"SEA_DEN_19533_19753")_ + 1 x_("SNA_SEA_19300_19472",_"SEA_ANC_19993_20169")_ + 1 x_("SNA_SEA_19300_19472",_"t")_ = 1
mp_c1_SAN_SEA_19361_19548_: 1 x_("SAN_SEA_19361_19548",_"SEA_RDM_19919_19997")_ + 1 x_("SAN_SEA_19361_19548",_"SEA_BUR_19612_19742")_ + 1 x_("SAN_SEA_19361_19548",_"SEA_ANC_19993_20169")_ + 1 x_("SAN_SEA_19361_19548",_"t")_ = 1
mp_c1_PDX_BUR_19379_19517_: 1 x_("PDX_BUR_19379_19517",_"BUR_PDX_19570_19722")_ + 1 x_("PDX_BUR_19379_19517",_"BUR_SEA_19808_19983")_ + 1 x_("PDX_BUR_19379_19517",_"t")_ = 1
mp_c1_SEA_TUS_19409_19642_: 1 x_("SEA_TUS_19409_19642",_"TUS_SEA_19702_19837")_ + 1 x_("SEA_TUS_19409_19642",_"t")_ = 1
mp_c1_SEA_DAL_19410_19742_: 1 x_("SEA_DAL_19410_19742",_"DAL_SEA_19816_19973")_ + 1 x_("SEA_DAL_19410_19742",_"t")_ = 1
mp_c1_SEA_DEN_19533_19753_: 1 x_("SEA_DEN_19533_19753",_"DEN_SEA_19812_19934")_ + 1 x_("SEA_DEN_19533_19753",_"t")_ = 1
mp_c1_BUR_PDX_19570_19722_: 1 x_("BUR_PDX_19570_19722",_"PDX_SNA_19778_19909")_ + 1 x_("BUR_PDX_19570_19722",_"t")_ = 1
mp_c1_SEA_BUR_19612_19742_: 1 x_("SEA_BUR_19612_19742",_"BUR_SEA_19808_19983")_ + 1 x_("SEA_BUR_19612_19742",_"t")_ = 1
mp_c1_TUS_SEA_19702_19837_: 1 x_("TUS_SEA_19702_19837",_"SEA_RDM_19919_19997")_ + 1 x_("TUS_SEA_19702_19837",_"SEA_ANC_19993_20169")_ + 1 x_("TUS_SEA_19702_19837",_"t")_ = 1
mp_c1_PDX_SNA_19778_19909_: 1 x_("PDX_SNA_19778_19909",_"SNA_PDX_19948_20103")_ + 1 x_("PDX_SNA_19778_19909",_"t")_ = 1
mp_c1_BUR_SEA_19808_19983_: 1 x_("BUR_SEA_19808_19983",_"t")_ = 1
mp_c1_DEN_SEA_19812_19934_: 1 x_("DEN_SEA_19812_19934",_"SEA_ANC_19993_20169")_ + 1 x_("DEN_SEA_19812_19934",_"t")_ = 1
mp_c1_DAL_SEA_19816_19973_: 1 x_("DAL_SEA_19816_19973",_"t")_ = 1
mp_c1_SEA_RDM_19919_19997_: 1 x_("SEA_RDM_19919_19997",_"t")_ = 1
mp_c1_SNA_PDX_19948_20103_: 1 x_("SNA_PDX_19948_20103",_"t")_ = 1
mp_c1_SEA_ANC_19993_20169_: 1 x_("SEA_ANC_19993_20169",_"t")_ = 1
mp_c2_N435AS_: 1 x_("s",_"N435AS")_ - 1 x_("N435AS",_"PDX_SNA_10733_10856")_ - 1 x_("N435AS",_"PDX_LAS_11263_11390")_ = 0
mp_c2_N548AS_: 1 x_("s",_"N548AS")_ - 1 x_("N548AS",_"SEA_MKE_10527_10867")_ - 1 x_("N548AS",_"SEA_DFW_10534_10880")_ - 1 x_("N548AS",_"SEA_SBA_10975_11105")_ - 1 x_("N548AS",_"SEA_FAI_11156_11321")_ - 1 x_("N548AS",_"SEA_ANC_11214_11362")_ - 1 x_("N548AS",_"SEA_DEN_11299_11510")_ - 1 x_("N548AS",_"SEA_AUS_11448_11783")_ = 0
mp_c2_N303AS_: 1 x_("s",_"N303AS")_ - 1 x_("N303AS",_"SEA_MKE_10527_10867")_ - 1 x_("N303AS",_"SEA_DFW_10534_10880")_ - 1 x_("N303AS",_"SEA_SBA_10975_11105")_ - 1 x_("N303AS",_"SEA_FAI_11156_11321")_ - 1 x_("N303AS",_"SEA_ANC_11214_11362")_ - 1 x_("N303AS",_"SEA_DEN_11299_11510")_ - 1 x_("N303AS",_"SEA_AUS_11448_11783")_ = 0
mp_c2_N553AS_: 1 x_("s",_"N553AS")_ - 1 x_("N553AS",_"BUR_PDX_10515_10681")_ = 0
mp_c2_N556AS_: 1 x_("s",_"N556AS")_ - 1 x_("N556AS",_"MCO_SEA_10685_10895")_ = 0
mp_c2_BUR_PDX_10515_10681_: 1 x_("N553AS",_"BUR_PDX_10515_10681")_ - 1 x_("BUR_PDX_10515_10681",_"PDX_SNA_10733_10856")_ - 1 x_("BUR_PDX_10515_10681",_"PDX_LAS_11263_11390")_ = 0
mp_c2_SEA_MKE_10527_10867_: 1 x_("N548AS",_"SEA_MKE_10527_10867")_ + 1 x_("N303AS",_"SEA_MKE_10527_10867")_ - 1 x_("SEA_MKE_10527_10867",_"MKE_SEA_10939_11077")_ = 0
mp_c2_SEA_DFW_10534_10880_: 1 x_("N548AS",_"SEA_DFW_10534_10880")_ + 1 x_("N303AS",_"SEA_DFW_10534_10880")_ - 1 x_("SEA_DFW_10534_10880",_"DFW_SEA_10940_11090")_ = 0
mp_c2_MCO_SEA_10685_10895_: 1 x_("N556AS",_"MCO_SEA_10685_10895")_ - 1 x_("MCO_SEA_10685_10895",_"SEA_DEN_11299_11510")_ - 1 x_("MCO_SEA_10685_10895",_"SEA_ANC_11214_11362")_ - 1 x_("MCO_SEA_10685_10895",_"SEA_FAI_11156_11321")_ - 1 x_("MCO_SEA_10685_10895",_"SEA_PHX_12265_12485")_ - 1 x_("MCO_SEA_10685_10895",_"SEA_AUS_11448_11783")_ - 1 x_("MCO_SEA_10685_10895",_"SEA_SBA_10975_11105")_ - 1 x_("MCO_SEA_10685_10895",_"SEA_LAS_12090_12244")_ - 1 x_("MCO_SEA_10685_10895",_"SEA_RDM_12197_12256")_ = 0
mp_c2_PDX_SNA_10733_10856_: 1 x_("N435AS",_"PDX_SNA_10733_10856")_ + 1 x_("BUR_PDX_10515_10681",_"PDX_SNA_10733_10856")_ - 1 x_("PDX_SNA_10733_10856",_"SNA_SEA_10924_11134")_ = 0
mp_c2_SNA_SEA_10924_11134_: 1 x_("PDX_SNA_10733_10856",_"SNA_SEA_10924_11134")_ - 1 x_("SNA_SEA_10924_11134",_"SEA_LAS_12573_12699")_ - 1 x_("SNA_SEA_10924_11134",_"SEA_DEN_11299_11510")_ - 1 x_("SNA_SEA_10924_11134",_"SEA_ANC_11214_11362")_ - 1 x_("SNA_SEA_10924_11134",_"SEA_PHX_12265_12485")_ - 1 x_("SNA_SEA_10924_11134",_"SEA_TUS_12542_12765")_ - 1 x_("SNA_SEA_10924_11134",_"SEA_AUS_11448_11783")_ - 1 x_("SNA_SEA_10924_11134",_"SEA_BOS_12457_12959")_ - 1 x_("SNA_SEA_10924_11134",_"SEA_LAS_12090_12244")_ - 1 x_("SNA_SEA_10924_11134",_"SEA_RDM_12197_12256")_ = 0
mp_c2_MKE_SEA_10939_11077_: 1 x_("SEA_MKE_10527_10867",_"MKE_SEA_10939_11077")_ - 1 x_("MKE_SEA_10939_11077",_"SEA_DEN_11299_11510")_ - 1 x_("MKE_SEA_10939_11077",_"SEA_ANC_11214_11362")_ - 1 x_("MKE_SEA_10939_11077",_"SEA_FAI_11156_11321")_ - 1 x_("MKE_SEA_10939_11077",_"SEA_PHX_12265_12485")_ - 1 x_("MKE_SEA_10939_11077",_"SEA_AUS_11448_11783")_ - 1 x_("MKE_SEA_10939_11077",_"SEA_BOS_12457_12959")_ - 1 x_("MKE_SEA_10939_11077",_"SEA_LAS_12090_12244")_ - 1 x_("MKE_SEA_10939_11077",_"SEA_RDM_12197_12256")_ = 0
mp_c2_DFW_SEA_10940_11090_: 1 x_("SEA_DFW_10534_10880",_"DFW_SEA_10940_11090")_ - 1 x_("DFW_SEA_10940_11090",_"SEA_DEN_11299_11510")_ - 1 x_("DFW_SEA_10940_11090",_"SEA_ANC_11214_11362")_ - 1 x_("DFW_SEA_10940_11090",_"SEA_FAI_11156_11321")_ - 1 x_("DFW_SEA_10940_11090",_"SEA_PHX_12265_12485")_ - 1 x_("DFW_SEA_10940_11090",_"SEA_AUS_11448_11783")_ - 1 x_("DFW_SEA_10940_11090",_"SEA_BOS_12457_12959")_ - 1 x_("DFW_SEA_10940_11090",_"SEA_LAS_12090_12244")_ - 1 x_("DFW_SEA_10940_11090",_"SEA_RDM_12197_12256")_ = 0
mp_c2_SEA_SBA_10975_11105_: 1 x_("N548AS",_"SEA_SBA_10975_11105")_ + 1 x_("N303AS",_"SEA_SBA_10975_11105")_ + 1 x_("MCO_SEA_10685_10895",_"SEA_SBA_10975_11105")_ - 1 x_("SEA_SBA_10975_11105",_"SBA_SEA_11142_11297")_ = 0
mp_c2_SBA_SEA_11142_11297_: 1 x_("SEA_SBA_10975_11105",_"SBA_SEA_11142_11297")_ - 1 x_("SBA_SEA_11142_11297",_"SEA_LAS_12573_12699")_ - 1 x_("SBA_SEA_11142_11297",_"SEA_PHX_12265_12485")_ - 1 x_("SBA_SEA_11142_11297",_"SEA_TUS_12542_12765")_ - 1 x_("SBA_SEA_11142_11297",_"SEA_MSP_12603_12910")_ - 1 x_("SBA_SEA_11142_11297",_"SEA_AUS_11448_11783")_ - 1 x_("SBA_SEA_11142_11297",_"SEA_BOS_12457_12959")_ - 1 x_("SBA_SEA_11142_11297",_"SEA_LAS_12090_12244")_ - 1 x_("SBA_SEA_11142_11297",_"SEA_RDM_12197_12256")_ = 0
mp_c2_SEA_FAI_11156_11321_: 1 x_("N548AS",_"SEA_FAI_11156_11321")_ + 1 x_("N303AS",_"SEA_FAI_11156_11321")_ + 1 x_("MCO_SEA_10685_10895",_"SEA_FAI_11156_11321")_ + 1 x_("MKE_SEA_10939_11077",_"SEA_FAI_11156_11321")_ + 1 x_("DFW_SEA_10940_11090",_"SEA_FAI_11156_11321")_ - 1 x_("SEA_FAI_11156_11321",_"FAI_SEA_11934_12211")_ = 0
mp_c2_SEA_ANC_11214_11362_: 1 x_("N548AS",_"SEA_ANC_11214_11362")_ + 1 x_("N303AS",_"SEA_ANC_11214_11362")_ + 1 x_("MCO_SEA_10685_10895",_"SEA_ANC_11214_11362")_ + 1 x_("SNA_SEA_10924_11134",_"SEA_ANC_11214_11362")_ + 1 x_("MKE_SEA_10939_11077",_"SEA_ANC_11214_11362")_ + 1 x_("DFW_SEA_10940_11090",_"SEA_ANC_11214_11362")_ - 1 x_("SEA_ANC_11214_11362",_"ANC_SEA_11872_12140")_ = 0
mp_c2_PDX_LAS_11263_11390_: 1 x_("N435AS",_"PDX_LAS_11263_11390")_ + 1 x_("BUR_PDX_10515_10681",_"PDX_LAS_11263_11390")_ - 1 x_("PDX_LAS_11263_11390",_"LAS_LAX_12746_12823")_ - 1 x_("PDX_LAS_11263_11390",_"LAS_SEA_12302_12476")_ - 1 x_("PDX_LAS_11263_11390",_"LAS_SEA_12242_12410")_ = 0
mp_c2_SEA_DEN_11299_11510_: 1 x_("N548AS",_"SEA_DEN_11299_11510")_ + 1 x_("N303AS",_"SEA_DEN_11299_11510")_ + 1 x_("MCO_SEA_10685_10895",_"SEA_DEN_11299_11510")_ + 1 x_("SNA_SEA_10924_11134",_"SEA_DEN_11299_11510")_ + 1 x_("MKE_SEA_10939_11077",_"SEA_DEN_11299_11510")_ + 1 x_("DFW_SEA_10940_11090",_"SEA_DEN_11299_11510")_ - 1 x_("SEA_DEN_11299_11510",_"DEN_SEA_11899_12032")_ = 0
mp_c2_SEA_AUS_11448_11783_: 1 x_("N548AS",_"SEA_AUS_11448_11783")_ + 1 x_("N303AS",_"SEA_AUS_11448_11783")_ + 1 x_("MCO_SEA_10685_10895",_"SEA_AUS_11448_11783")_ + 1 x_("SNA_SEA_10924_11134",_"SEA_AUS_11448_11783")_ + 1 x_("MKE_SEA_10939_11077",_"SEA_AUS_11448_11783")_ + 1 x_("DFW_SEA_10940_11090",_"SEA_AUS_11448_11783")_ + 1 x_("SBA_SEA_11142_11297",_"SEA_AUS_11448_11783")_ - 1 x_("SEA_AUS_11448_11783",_"AUS_SEA_12358_12531")_ = 0
mp_c2_ANC_SEA_11872_12140_: 1 x_("SEA_ANC_11214_11362",_"ANC_SEA_11872_12140")_ - 1 x_("ANC_SEA_11872_12140",_"SEA_LAS_12573_12699")_ - 1 x_("ANC_SEA_11872_12140",_"SEA_TPA_13536_14022")_ - 1 x_("ANC_SEA_11872_12140",_"SEA_PHX_12265_12485")_ - 1 x_("ANC_SEA_11872_12140",_"SEA_TUS_12542_12765")_ - 1 x_("ANC_SEA_11872_12140",_"SEA_MSP_12603_12910")_ - 1 x_("ANC_SEA_11872_12140",_"SEA_BOS_12457_12959")_ - 1 x_("ANC_SEA_11872_12140",_"SEA_RDM_12197_12256")_ - 1 x_("ANC_SEA_11872_12140",_"SEA_PHX_12739_12962")_ = 0
mp_c2_DEN_SEA_11899_12032_: 1 x_("SEA_DEN_11299_11510",_"DEN_SEA_11899_12032")_ - 1 x_("DEN_SEA_11899_12032",_"SEA_LAS_12573_12699")_ - 1 x_("DEN_SEA_11899_12032",_"SEA_PHX_12265_12485")_ - 1 x_("DEN_SEA_11899_12032",_"SEA_TUS_12542_12765")_ - 1 x_("DEN_SEA_11899_12032",_"SEA_MSP_12603_12910")_ - 1 x_("DEN_SEA_11899_12032",_"SEA_BOS_12457_12959")_ - 1 x_("DEN_SEA_11899_12032",_"SEA_LAS_12090_12244")_ - 1 x_("DEN_SEA_11899_12032",_"SEA_RDM_12197_12256")_ - 1 x_("DEN_SEA_11899_12032",_"SEA_PHX_12739_12962")_ = 0
mp_c2_FAI_SEA_11934_12211_: 1 x_("SEA_FAI_11156_11321",_"FAI_SEA_11934_12211")_ - 1 x_("FAI_SEA_11934_12211",_"SEA_LAS_12573_12699")_ - 1 x_("FAI_SEA_11934_12211",_"SEA_TPA_13536_14022")_ - 1 x_("FAI_SEA_11934_12211",_"SEA_PHX_12265_12485")_ - 1 x_("FAI_SEA_11934_12211",_"SEA_TUS_12542_12765")_ - 1 x_("FAI_SEA_11934_12211",_"SEA_SMF_13599_13694")_ - 1 x_("FAI_SEA_11934_12211",_"SEA_MSP_12603_12910")_ - 1 x_("FAI_SEA_11934_12211",_"SEA_GEG_13644_13713")_ - 1 x_("FAI_SEA_11934_12211",_"SEA_BOS_12457_12959")_ - 1 x_("FAI_SEA_11934_12211",_"SEA_PHX_12739_12962")_ = 0
mp_c2_SEA_LAS_12090_12244_: 1 x_("MCO_SEA_10685_10895",_"SEA_LAS_12090_12244")_ + 1 x_("SNA_SEA_10924_11134",_"SEA_LAS_12090_12244")_ + 1 x_("MKE_SEA_10939_11077",_"SEA_LAS_12090_12244")_ + 1 x_("DFW_SEA_10940_11090",_"SEA_LAS_12090_12244")_ + 1 x_("SBA_SEA_11142_11297",_"SEA_LAS_12090_12244")_ + 1 x_("DEN_SEA_11899_12032",_"SEA_LAS_12090_12244")_ - 1 x_("SEA_LAS_12090_12244",_"LAS_LAX_12746_12823")_ - 1 x_("SEA_LAS_12090_12244",_"LAS_SEA_12302_12476")_ = 0
mp_c2_SEA_RDM_12197_12256_: 1 x_("MCO_SEA_10685_10895",_"SEA_RDM_12197_12256")_ + 1 x_("SNA_SEA_10924_11134",_"SEA_RDM_12197_12256")_ + 1 x_("MKE_SEA_10939_11077",_"SEA_RDM_12197_12256")_ + 1 x_("DFW_SEA_10940_11090",_"SEA_RDM_12197_12256")_ + 1 x_("SBA_SEA_11142_11297",_"SEA_RDM_12197_12256")_ + 1 x_("ANC_SEA_11872_12140",_"SEA_RDM_12197_12256")_ + 1 x_("DEN_SEA_11899_12032",_"SEA_RDM_12197_12256")_ - 1 x_("SEA_RDM_12197_12256",_"RDM_SEA_12319_12399")_ = 0
mp_c2_LAS_SEA_12242_12410_: 1 x_("PDX_LAS_11263_11390",_"LAS_SEA_12242_12410")_ - 1 x_("LAS_SEA_12242_12410",_"SEA_LAS_12573_12699")_ - 1 x_("LAS_SEA_12242_12410",_"SEA_TPA_13536_14022")_ - 1 x_("LAS_SEA_12242_12410",_"SEA_TUS_12542_12765")_ - 1 x_("LAS_SEA_12242_12410",_"SEA_SMF_13599_13694")_ - 1 x_("LAS_SEA_12242_12410",_"SEA_MSP_12603_12910")_ - 1 x_("LAS_SEA_12242_12410",_"SEA_GEG_13644_13713")_ - 1 x_("LAS_SEA_12242_12410",_"SEA_BOS_12457_12959")_ - 1 x_("LAS_SEA_12242_12410",_"SEA_SJC_13777_13892")_ - 1 x_("LAS_SEA_12242_12410",_"SEA_PHX_12739_12962")_ = 0
mp_c2_SEA_PHX_12265_12485_: 1 x_("MCO_SEA_10685_10895",_"SEA_PHX_12265_12485")_ + 1 x_("SNA_SEA_10924_11134",_"SEA_PHX_12265_12485")_ + 1 x_("MKE_SEA_10939_11077",_"SEA_PHX_12265_12485")_ + 1 x_("DFW_SEA_10940_11090",_"SEA_PHX_12265_12485")_ + 1 x_("SBA_SEA_11142_11297",_"SEA_PHX_12265_12485")_ + 1 x_("ANC_SEA_11872_12140",_"SEA_PHX_12265_12485")_ + 1 x_("DEN_SEA_11899_12032",_"SEA_PHX_12265_12485")_ + 1 x_("FAI_SEA_11934_12211",_"SEA_PHX_12265_12485")_ - 1 x_("SEA_PHX_12265_12485",_"PHX_SEA_13313_13468")_ - 1 x_("SEA_PHX_12265_12485",_"PHX_SEA_12540_12679")_ = 0
mp_c2_LAS_SEA_12302_12476_: 1 x_("PDX_LAS_11263_11390",_"LAS_SEA_12302_12476")_ + 1 x_("SEA_LAS_12090_12244",_"LAS_SEA_12302_12476")_ - 1 x_("LAS_SEA_12302_12476",_"SEA_LAS_12573_12699")_ - 1 x_("LAS_SEA_12302_12476",_"SEA_TPA_13536_14022")_ - 1 x_("LAS_SEA_12302_12476",_"SEA_TUS_12542_12765")_ - 1 x_("LAS_SEA_12302_12476",_"SEA_SMF_13599_13694")_ - 1 x_("LAS_SEA_12302_12476",_"SEA_MSP_12603_12910")_ - 1 x_("LAS_SEA_12302_12476",_"SEA_GEG_13889_13953")_ - 1 x_("LAS_SEA_12302_12476",_"SEA_GEG_13644_13713")_ - 1 x_("LAS_SEA_12302_12476",_"SEA_SJC_13777_13892")_ - 1 x_("LAS_SEA_12302_12476",_"SEA_PHX_12739_12962")_ = 0
mp_c2_RDM_SEA_12319_12399_: 1 x_("SEA_RDM_12197_12256",_"RDM_SEA_12319_12399")_ - 1 x_("RDM_SEA_12319_12399",_"SEA_LAS_12573_12699")_ - 1 x_("RDM_SEA_12319_12399",_"SEA_TPA_13536_14022")_ - 1 x_("RDM_SEA_12319_12399",_"SEA_TUS_12542_12765")_ - 1 x_("RDM_SEA_12319_12399",_"SEA_SMF_13599_13694")_ - 1 x_("RDM_SEA_12319_12399",_"SEA_MSP_12603_12910")_ - 1 x_("RDM_SEA_12319_12399",_"SEA_GEG_13644_13713")_ - 1 x_("RDM_SEA_12319_12399",_"SEA_BOS_12457_12959")_ - 1 x_("RDM_SEA_12319_12399",_"SEA_SJC_13777_13892")_ - 1 x_("RDM_SEA_12319_12399",_"SEA_PHX_12739_12962")_ = 0
mp_c2_AUS_SEA_12358_12531_: 1 x_("SEA_AUS_11448_11783",_"AUS_SEA_12358_12531")_ - 1 x_("AUS_SEA_12358_12531",_"SEA_LAS_12573_12699")_ - 1 x_("AUS_SEA_12358_12531",_"SEA_TPA_13536_14022")_ - 1 x_("AUS_SEA_12358_12531",_"SEA_SMF_13599_13694")_ - 1 x_("AUS_SEA_12358_12531",_"SEA_MSP_12603_12910")_ - 1 x_("AUS_SEA_12358_12531",_"SEA_SNA_13947_14092")_ - 1 x_("AUS_SEA_12358_12531",_"SEA_GEG_13889_13953")_ - 1 x_("AUS_SEA_12358_12531",_"SEA_GEG_13644_13713")_ - 1 x_("AUS_SEA_12358_12531",_"SEA_SJC_13777_13892")_ - 1 x_("AUS_SEA_12358_12531",_"SEA_PHX_12739_12962")_ = 0
mp_c2_SEA_BOS_12457_12959_: 1 x_("SNA_SEA_10924_11134",_"SEA_BOS_12457_12959")_ + 1 x_("MKE_SEA_10939_11077",_"SEA_BOS_12457_12959")_ + 1 x_("DFW_SEA_10940_11090",_"SEA_BOS_12457_12959")_ + 1 x_("SBA_SEA_11142_11297",_"SEA_BOS_12457_12959")_ + 1 x_("ANC_SEA_11872_12140",_"SEA_BOS_12457_12959")_ + 1 x_("DEN_SEA_11899_12032",_"SEA_BOS_12457_12959")_ + 1 x_("FAI_SEA_11934_12211",_"SEA_BOS_12457_12959")_ + 1 x_("LAS_SEA_12242_12410",_"SEA_BOS_12457_12959")_ + 1 x_("RDM_SEA_12319_12399",_"SEA_BOS_12457_12959")_ - 1 x_("SEA_BOS_12457_12959",_"BOS_SEA_13423_13580")_ = 0
mp_c2_PHX_SEA_12540_12679_: 1 x_("SEA_PHX_12265_12485",_"PHX_SEA_12540_12679")_ - 1 x_("PHX_SEA_12540_12679",_"SEA_TPA_13536_14022")_ - 1 x_("PHX_SEA_12540_12679",_"SEA_SMF_13599_13694")_ - 1 x_("PHX_SEA_12540_12679",_"SEA_SNA_13947_14092")_ - 1 x_("PHX_SEA_12540_12679",_"SEA_GEG_13889_13953")_ - 1 x_("PHX_SEA_12540_12679",_"SEA_GEG_13644_13713")_ - 1 x_("PHX_SEA_12540_12679",_"SEA_SJC_13777_13892")_ - 1 x_("PHX_SEA_12540_12679",_"SEA_PHX_12739_12962")_ = 0
mp_c2_SEA_TUS_12542_12765_: 1 x_("SNA_SEA_10924_11134",_"SEA_TUS_12542_12765")_ + 1 x_("SBA_SEA_11142_11297",_"SEA_TUS_12542_12765")_ + 1 x_("ANC_SEA_11872_12140",_"SEA_TUS_12542_12765")_ + 1 x_("DEN_SEA_11899_12032",_"SEA_TUS_12542_12765")_ + 1 x_("FAI_SEA_11934_12211",_"SEA_TUS_12542_12765")_ + 1 x_("LAS_SEA_12242_12410",_"SEA_TUS_12542_12765")_ + 1 x_("LAS_SEA_12302_12476",_"SEA_TUS_12542_12765")_ + 1 x_("RDM_SEA_12319_12399",_"SEA_TUS_12542_12765")_ - 1 x_("SEA_TUS_12542_12765",_"TUS_SEA_13560_13715")_ = 0
mp_c2_SEA_LAS_12573_12699_: 1 x_("SNA_SEA_10924_11134",_"SEA_LAS_12573_12699")_ + 1 x_("SBA_SEA_11142_11297",_"SEA_LAS_12573_12699")_ + 1 x_("ANC_SEA_11872_12140",_"SEA_LAS_12573_12699")_ + 1 x_("DEN_SEA_11899_12032",_"SEA_LAS_12573_12699")_ + 1 x_("FAI_SEA_11934_12211",_"SEA_LAS_12573_12699")_ + 1 x_("LAS_SEA_12242_12410",_"SEA_LAS_12573_12699")_ + 1 x_("LAS_SEA_12302_12476",_"SEA_LAS_12573_12699")_ + 1 x_("RDM_SEA_12319_12399",_"SEA_LAS_12573_12699")_ + 1 x_("AUS_SEA_12358_12531",_"SEA_LAS_12573_12699")_ - 1 x_("SEA_LAS_12573_12699",_"LAS_LAX_12746_12823")_ = 0
mp_c2_SEA_MSP_12603_12910_: 1 x_("SBA_SEA_11142_11297",_"SEA_MSP_12603_12910")_ + 1 x_("ANC_SEA_11872_12140",_"SEA_MSP_12603_12910")_ + 1 x_("DEN_SEA_11899_12032",_"SEA_MSP_12603_12910")_ + 1 x_("FAI_SEA_11934_12211",_"SEA_MSP_12603_12910")_ + 1 x_("LAS_SEA_12242_12410",_"SEA_MSP_12603_12910")_ + 1 x_("LAS_SEA_12302_12476",_"SEA_MSP_12603_12910")_ + 1 x_("RDM_SEA_12319_12399",_"SEA_MSP_12603_12910")_ + 1 x_("AUS_SEA_12358_12531",_"SEA_MSP_12603_12910")_ - 1 x_("SEA_MSP_12603_12910",_"MSP_SEA_13375_13512")_ = 0
mp_c2_SEA_PHX_12739_12962_: 1 x_("ANC_SEA_11872_12140",_"SEA_PHX_12739_12962")_ + 1 x_("DEN_SEA_11899_12032",_"SEA_PHX_12739_12962")_ + 1 x_("FAI_SEA_11934_12211",_"SEA_PHX_12739_12962")_ + 1 x_("LAS_SEA_12242_12410",_"SEA_PHX_12739_12962")_ + 1 x_("LAS_SEA_12302_12476",_"SEA_PHX_12739_12962")_ + 1 x_("RDM_SEA_12319_12399",_"SEA_PHX_12739_12962")_ + 1 x_("AUS_SEA_12358_12531",_"SEA_PHX_12739_12962")_ + 1 x_("PHX_SEA_12540_12679",_"SEA_PHX_12739_12962")_ - 1 x_("SEA_PHX_12739_12962",_"PHX_SEA_13313_13468")_ = 0
mp_c2_LAS_LAX_12746_12823_: 1 x_("PDX_LAS_11263_11390",_"LAS_LAX_12746_12823")_ + 1 x_("SEA_LAS_12090_12244",_"LAS_LAX_12746_12823")_ + 1 x_("SEA_LAS_12573_12699",_"LAS_LAX_12746_12823")_ - 1 x_("LAS_LAX_12746_12823",_"LAX_HNL_13385_13624")_ = 0
mp_c2_PHX_SEA_13313_13468_: 1 x_("SEA_PHX_12265_12485",_"PHX_SEA_13313_13468")_ + 1 x_("SEA_PHX_12739_12962",_"PHX_SEA_13313_13468")_ - 1 x_("PHX_SEA_13313_13468",_"SEA_TPA_13536_14022")_ - 1 x_("PHX_SEA_13313_13468",_"SEA_SMF_13599_13694")_ - 1 x_("PHX_SEA_13313_13468",_"SEA_MSP_14135_14466")_ - 1 x_("PHX_SEA_13313_13468",_"SEA_JNU_14137_14272")_ - 1 x_("PHX_SEA_13313_13468",_"SEA_SNA_13947_14092")_ - 1 x_("PHX_SEA_13313_13468",_"SEA_AUS_14856_15227")_ - 1 x_("PHX_SEA_13313_13468",_"SEA_GEG_13889_13953")_ - 1 x_("PHX_SEA_13313_13468",_"SEA_GEG_13644_13713")_ - 1 x_("PHX_SEA_13313_13468",_"SEA_MSY_14351_14725")_ - 1 x_("PHX_SEA_13313_13468",_"SEA_FAI_14896_15115")_ - 1 x_("PHX_SEA_13313_13468",_"SEA_SJC_13777_13892")_ = 0
mp_c2_MSP_SEA_13375_13512_: 1 x_("SEA_MSP_12603_12910",_"MSP_SEA_13375_13512")_ - 1 x_("MSP_SEA_13375_13512",_"SEA_SMF_13599_13694")_ - 1 x_("MSP_SEA_13375_13512",_"SEA_MSP_14135_14466")_ - 1 x_("MSP_SEA_13375_13512",_"SEA_JNU_14137_14272")_ - 1 x_("MSP_SEA_13375_13512",_"SEA_SNA_13947_14092")_ - 1 x_("MSP_SEA_13375_13512",_"SEA_AUS_14856_15227")_ - 1 x_("MSP_SEA_13375_13512",_"SEA_GEG_13889_13953")_ - 1 x_("MSP_SEA_13375_13512",_"SEA_GEG_13644_13713")_ - 1 x_("MSP_SEA_13375_13512",_"SEA_MSY_14351_14725")_ - 1 x_("MSP_SEA_13375_13512",_"SEA_FAI_14896_15115")_ - 1 x_("MSP_SEA_13375_13512",_"SEA_SJC_13777_13892")_ = 0
mp_c2_LAX_HNL_13385_13624_: 1 x_("LAS_LAX_12746_12823",_"LAX_HNL_13385_13624")_ - 1 x_("LAX_HNL_13385_13624",_"HNL_PDX_13699_14142")_ = 0
mp_c2_BOS_SEA_13423_13580_: 1 x_("SEA_BOS_12457_12959",_"BOS_SEA_13423_13580")_ - 1 x_("BOS_SEA_13423_13580",_"SEA_MSP_14135_14466")_ - 1 x_("BOS_SEA_13423_13580",_"SEA_JNU_14137_14272")_ - 1 x_("BOS_SEA_13423_13580",_"SEA_SNA_13947_14092")_ - 1 x_("BOS_SEA_13423_13580",_"SEA_AUS_14856_15227")_ - 1 x_("BOS_SEA_13423_13580",_"SEA_ORD_15012_15365")_ - 1 x_("BOS_SEA_13423_13580",_"SEA_GEG_13889_13953")_ - 1 x_("BOS_SEA_13423_13580",_"SEA_GEG_13644_13713")_ - 1 x_("BOS_SEA_13423_13580",_"SEA_MSY_14351_14725")_ - 1 x_("BOS_SEA_13423_13580",_"SEA_FAI_14896_15115")_ - 1 x_("BOS_SEA_13423_13580",_"SEA_SJC_13777_13892")_ = 0
mp_c2_SEA_TPA_13536_14022_: 1 x_("ANC_SEA_11872_12140",_"SEA_TPA_13536_14022")_ + 1 x_("FAI_SEA_11934_12211",_"SEA_TPA_13536_14022")_ + 1 x_("LAS_SEA_12242_12410",_"SEA_TPA_13536_14022")_ + 1 x_("LAS_SEA_12302_12476",_"SEA_TPA_13536_14022")_ + 1 x_("RDM_SEA_12319_12399",_"SEA_TPA_13536_14022")_ + 1 x_("AUS_SEA_12358_12531",_"SEA_TPA_13536_14022")_ + 1 x_("PHX_SEA_12540_12679",_"SEA_TPA_13536_14022")_ + 1 x_("PHX_SEA_13313_13468",_"SEA_TPA_13536_14022")_ - 1 x_("SEA_TPA_13536_14022",_"TPA_SEA_14080_14280")_ = 0
mp_c2_TUS_SEA_13560_13715_: 1 x_("SEA_TUS_12542_12765",_"TUS_SEA_13560_13715")_ - 1 x_("TUS_SEA_13560_13715",_"SEA_MSP_14135_14466")_ - 1 x_("TUS_SEA_13560_13715",_"SEA_JNU_14137_14272")_ - 1 x_("TUS_SEA_13560_13715",_"SEA_SNA_13947_14092")_ - 1 x_("TUS_SEA_13560_13715",_"SEA_MSY_15060_15437")_ - 1 x_("TUS_SEA_13560_13715",_"SEA_AUS_14856_15227")_ - 1 x_("TUS_SEA_13560_13715",_"SEA_ORD_15012_15365")_ - 1 x_("TUS_SEA_13560_13715",_"SEA_GEG_13889_13953")_ - 1 x_("TUS_SEA_13560_13715",_"SEA_MSY_14351_14725")_ - 1 x_("TUS_SEA_13560_13715",_"SEA_FAI_14896_15115")_ - 1 x_("TUS_SEA_13560_13715",_"SEA_SJC_13777_13892")_ = 0
mp_c2_SEA_SMF_13599_13694_: 1 x_("FAI_SEA_11934_12211",_"SEA_SMF_13599_13694")_ + 1 x_("LAS_SEA_12242_12410",_"SEA_SMF_13599_13694")_ + 1 x_("LAS_SEA_12302_12476",_"SEA_SMF_13599_13694")_ + 1 x_("RDM_SEA_12319_12399",_"SEA_SMF_13599_13694")_ + 1 x_("AUS_SEA_12358_12531",_"SEA_SMF_13599_13694")_ + 1 x_("PHX_SEA_12540_12679",_"SEA_SMF_13599_13694")_ + 1 x_("PHX_SEA_13313_13468",_"SEA_SMF_13599_13694")_ + 1 x_("MSP_SEA_13375_13512",_"SEA_SMF_13599_13694")_ - 1 x_("SEA_SMF_13599_13694",_"SMF_SEA_13740_13859")_ = 0
mp_c2_SEA_GEG_13644_13713_: 1 x_("FAI_SEA_11934_12211",_"SEA_GEG_13644_13713")_ + 1 x_("LAS_SEA_12242_12410",_"SEA_GEG_13644_13713")_ + 1 x_("LAS_SEA_12302_12476",_"SEA_GEG_13644_13713")_ + 1 x_("RDM_SEA_12319_12399",_"SEA_GEG_13644_13713")_ + 1 x_("AUS_SEA_12358_12531",_"SEA_GEG_13644_13713")_ + 1 x_("PHX_SEA_12540_12679",_"SEA_GEG_13644_13713")_ + 1 x_("PHX_SEA_13313_13468",_"SEA_GEG_13644_13713")_ + 1 x_("MSP_SEA_13375_13512",_"SEA_GEG_13644_13713")_ + 1 x_("BOS_SEA_13423_13580",_"SEA_GEG_13644_13713")_ - 1 x_("SEA_GEG_13644_13713",_"GEG_SEA_14008_14081")_ - 1 x_("SEA_GEG_13644_13713",_"GEG_SEA_13772_13832")_ = 0
mp_c2_HNL_PDX_13699_14142_: 1 x_("LAX_HNL_13385_13624",_"HNL_PDX_13699_14142")_ - 1 x_("HNL_PDX_13699_14142",_"PDX_SEA_14715_14768")_ = 0
mp_c2_SMF_SEA_13740_13859_: 1 x_("SEA_SMF_13599_13694",_"SMF_SEA_13740_13859")_ - 1 x_("SMF_SEA_13740_13859",_"SEA_MSP_14135_14466")_ - 1 x_("SMF_SEA_13740_13859",_"SEA_JNU_14137_14272")_ - 1 x_("SMF_SEA_13740_13859",_"SEA_SNA_13947_14092")_ - 1 x_("SMF_SEA_13740_13859",_"SEA_MSY_15060_15437")_ - 1 x_("SMF_SEA_13740_13859",_"SEA_AUS_14856_15227")_ - 1 x_("SMF_SEA_13740_13859",_"SEA_ORD_15012_15365")_ - 1 x_("SMF_SEA_13740_13859",_"SEA_MSY_14351_14725")_ - 1 x_("SMF_SEA_13740_13859",_"SEA_FAI_14896_15115")_ - 1 x_("SMF_SEA_13740_13859",_"SEA_BZN_15162_15306")_ = 0
mp_c2_GEG_SEA_13772_13832_: 1 x_("SEA_GEG_13644_13713",_"GEG_SEA_13772_13832")_ - 1 x_("GEG_SEA_13772_13832",_"SEA_MSP_14135_14466")_ - 1 x_("GEG_SEA_13772_13832",_"SEA_JNU_14137_14272")_ - 1 x_("GEG_SEA_13772_13832",_"SEA_SNA_13947_14092")_ - 1 x_("GEG_SEA_13772_13832",_"SEA_MSY_15060_15437")_ - 1 x_("GEG_SEA_13772_13832",_"SEA_AUS_14856_15227")_ - 1 x_("GEG_SEA_13772_13832",_"SEA_ORD_15012_15365")_ - 1 x_("GEG_SEA_13772_13832",_"SEA_GEG_13889_13953")_ - 1 x_("GEG_SEA_13772_13832",_"SEA_MSY_14351_14725")_ - 1 x_("GEG_SEA_13772_13832",_"SEA_FAI_14896_15115")_ - 1 x_("GEG_SEA_13772_13832",_"SEA_BZN_15162_15306")_ = 0
mp_c2_SEA_SJC_13777_13892_: 1 x_("LAS_SEA_12242_12410",_"SEA_SJC_13777_13892")_ + 1 x_("LAS_SEA_12302_12476",_"SEA_SJC_13777_13892")_ + 1 x_("RDM_SEA_12319_12399",_"SEA_SJC_13777_13892")_ + 1 x_("AUS_SEA_12358_12531",_"SEA_SJC_13777_13892")_ + 1 x_("PHX_SEA_12540_12679",_"SEA_SJC_13777_13892")_ + 1 x_("PHX_SEA_13313_13468",_"SEA_SJC_13777_13892")_ + 1 x_("MSP_SEA_13375_13512",_"SEA_SJC_13777_13892")_ + 1 x_("BOS_SEA_13423_13580",_"SEA_SJC_13777_13892")_ + 1 x_("TUS_SEA_13560_13715",_"SEA_SJC_13777_13892")_ - 1 x_("SEA_SJC_13777_13892",_"SJC_SEA_13949_14086")_ = 0
mp_c2_SEA_GEG_13889_13953_: 1 x_("LAS_SEA_12302_12476",_"SEA_GEG_13889_13953")_ + 1 x_("AUS_SEA_12358_12531",_"SEA_GEG_13889_13953")_ + 1 x_("PHX_SEA_12540_12679",_"SEA_GEG_13889_13953")_ + 1 x_("PHX_SEA_13313_13468",_"SEA_GEG_13889_13953")_ + 1 x_("MSP_SEA_13375_13512",_"SEA_GEG_13889_13953")_ + 1 x_("BOS_SEA_13423_13580",_"SEA_GEG_13889_13953")_ + 1 x_("TUS_SEA_13560_13715",_"SEA_GEG_13889_13953")_ + 1 x_("GEG_SEA_13772_13832",_"SEA_GEG_13889_13953")_ - 1 x_("SEA_GEG_13889_13953",_"GEG_SEA_14008_14081")_ = 0
mp_c2_SEA_SNA_13947_14092_: 1 x_("AUS_SEA_12358_12531",_"SEA_SNA_13947_14092")_ + 1 x_("PHX_SEA_12540_12679",_"SEA_SNA_13947_14092")_ + 1 x_("PHX_SEA_13313_13468",_"SEA_SNA_13947_14092")_ + 1 x_("MSP_SEA_13375_13512",_"SEA_SNA_13947_14092")_ + 1 x_("BOS_SEA_13423_13580",_"SEA_SNA_13947_14092")_ + 1 x_("TUS_SEA_13560_13715",_"SEA_SNA_13947_14092")_ + 1 x_("SMF_SEA_13740_13859",_"SEA_SNA_13947_14092")_ + 1 x_("GEG_SEA_13772_13832",_"SEA_SNA_13947_14092")_ - 1 x_("SEA_SNA_13947_14092",_"SNA_SEA_14146_14321")_ = 0
mp_c2_SJC_SEA_13949_14086_: 1 x_("SEA_SJC_13777_13892",_"SJC_SEA_13949_14086")_ - 1 x_("SJC_SEA_13949_14086",_"SEA_TUS_15472_15686")_ - 1 x_("SJC_SEA_13949_14086",_"SEA_SNA_15482_15629")_ - 1 x_("SJC_SEA_13949_14086",_"SEA_MSP_14135_14466")_ - 1 x_("SJC_SEA_13949_14086",_"SEA_JNU_14137_14272")_ - 1 x_("SJC_SEA_13949_14086",_"SEA_MSY_15060_15437")_ - 1 x_("SJC_SEA_13949_14086",_"SEA_AUS_14856_15227")_ - 1 x_("SJC_SEA_13949_14086",_"SEA_ORD_15012_15365")_ - 1 x_("SJC_SEA_13949_14086",_"SEA_MSY_14351_14725")_ - 1 x_("SJC_SEA_13949_14086",_"SEA_FAI_14896_15115")_ - 1 x_("SJC_SEA_13949_14086",_"SEA_BZN_15162_15306")_ = 0
mp_c2_GEG_SEA_14008_14081_: 1 x_("SEA_GEG_13644_13713",_"GEG_SEA_14008_14081")_ + 1 x_("SEA_GEG_13889_13953",_"GEG_SEA_14008_14081")_ - 1 x_("GEG_SEA_14008_14081",_"SEA_TUS_15472_15686")_ - 1 x_("GEG_SEA_14008_14081",_"SEA_SNA_15482_15629")_ - 1 x_("GEG_SEA_14008_14081",_"SEA_MSP_14135_14466")_ - 1 x_("GEG_SEA_14008_14081",_"SEA_JNU_14137_14272")_ - 1 x_("GEG_SEA_14008_14081",_"SEA_MSY_15060_15437")_ - 1 x_("GEG_SEA_14008_14081",_"SEA_AUS_14856_15227")_ - 1 x_("GEG_SEA_14008_14081",_"SEA_ORD_15012_15365")_ - 1 x_("GEG_SEA_14008_14081",_"SEA_MSY_14351_14725")_ - 1 x_("GEG_SEA_14008_14081",_"SEA_FAI_14896_15115")_ - 1 x_("GEG_SEA_14008_14081",_"SEA_BZN_15162_15306")_ = 0
mp_c2_TPA_SEA_14080_14280_: 1 x_("SEA_TPA_13536_14022",_"TPA_SEA_14080_14280")_ - 1 x_("TPA_SEA_14080_14280",_"SEA_TUS_15472_15686")_ - 1 x_("TPA_SEA_14080_14280",_"SEA_SNA_15482_15629")_ - 1 x_("TPA_SEA_14080_14280",_"SEA_MSY_15060_15437")_ - 1 x_("TPA_SEA_14080_14280",_"SEA_AUS_14856_15227")_ - 1 x_("TPA_SEA_14080_14280",_"SEA_ORD_15012_15365")_ - 1 x_("TPA_SEA_14080_14280",_"SEA_MSY_14351_14725")_ - 1 x_("TPA_SEA_14080_14280",_"SEA_FAI_14896_15115")_ - 1 x_("TPA_SEA_14080_14280",_"SEA_BZN_15162_15306")_ = 0
mp_c2_SEA_MSP_14135_14466_: 1 x_("PHX_SEA_13313_13468",_"SEA_MSP_14135_14466")_ + 1 x_("MSP_SEA_13375_13512",_"SEA_MSP_14135_14466")_ + 1 x_("BOS_SEA_13423_13580",_"SEA_MSP_14135_14466")_ + 1 x_("TUS_SEA_13560_13715",_"SEA_MSP_14135_14466")_ + 1 x_("SMF_SEA_13740_13859",_"SEA_MSP_14135_14466")_ + 1 x_("GEG_SEA_13772_13832",_"SEA_MSP_14135_14466")_ + 1 x_("SJC_SEA_13949_14086",_"SEA_MSP_14135_14466")_ + 1 x_("GEG_SEA_14008_14081",_"SEA_MSP_14135_14466")_ - 1 x_("SEA_MSP_14135_14466",_"MSP_SEA_14826_14932")_ = 0
mp_c2_SEA_JNU_14137_14272_: 1 x_("PHX_SEA_13313_13468",_"SEA_JNU_14137_14272")_ + 1 x_("MSP_SEA_13375_13512",_"SEA_JNU_14137_14272")_ + 1 x_("BOS_SEA_13423_13580",_"SEA_JNU_14137_14272")_ + 1 x_("TUS_SEA_13560_13715",_"SEA_JNU_14137_14272")_ + 1 x_("SMF_SEA_13740_13859",_"SEA_JNU_14137_14272")_ + 1 x_("GEG_SEA_13772_13832",_"SEA_JNU_14137_14272")_ + 1 x_("SJC_SEA_13949_14086",_"SEA_JNU_14137_14272")_ + 1 x_("GEG_SEA_14008_14081",_"SEA_JNU_14137_14272")_ - 1 x_("SEA_JNU_14137_14272",_"JNU_SEA_14935_15110")_ = 0
mp_c2_SNA_SEA_14146_14321_: 1 x_("SEA_SNA_13947_14092",_"SNA_SEA_14146_14321")_ - 1 x_("SNA_SEA_14146_14321",_"SEA_TUS_15472_15686")_ - 1 x_("SNA_SEA_14146_14321",_"SEA_SNA_15482_15629")_ - 1 x_("SNA_SEA_14146_14321",_"SEA_MSY_15060_15437")_ - 1 x_("SNA_SEA_14146_14321",_"SEA_AUS_14856_15227")_ - 1 x_("SNA_SEA_14146_14321",_"SEA_ORD_15012_15365")_ - 1 x_("SNA_SEA_14146_14321",_"SEA_FAI_14896_15115")_ - 1 x_("SNA_SEA_14146_14321",_"SEA_BZN_15162_15306")_ = 0
mp_c2_SEA_MSY_14351_14725_: 1 x_("PHX_SEA_13313_13468",_"SEA_MSY_14351_14725")_ + 1 x_("MSP_SEA_13375_13512",_"SEA_MSY_14351_14725")_ + 1 x_("BOS_SEA_13423_13580",_"SEA_MSY_14351_14725")_ + 1 x_("TUS_SEA_13560_13715",_"SEA_MSY_14351_14725")_ + 1 x_("SMF_SEA_13740_13859",_"SEA_MSY_14351_14725")_ + 1 x_("GEG_SEA_13772_13832",_"SEA_MSY_14351_14725")_ + 1 x_("SJC_SEA_13949_14086",_"SEA_MSY_14351_14725")_ + 1 x_("GEG_SEA_14008_14081",_"SEA_MSY_14351_14725")_ + 1 x_("TPA_SEA_14080_14280",_"SEA_MSY_14351_14725")_ - 1 x_("SEA_MSY_14351_14725",_"MSY_SEA_14807_15011")_ - 1 x_("SEA_MSY_14351_14725",_"MSY_SEA_15510_15716")_ = 0
mp_c2_PDX_SEA_14715_14768_: 1 x_("HNL_PDX_13699_14142",_"PDX_SEA_14715_14768")_ - 1 x_("PDX_SEA_14715_14768",_"SEA_TUS_15472_15686")_ - 1 x_("PDX_SEA_14715_14768",_"SEA_SNA_15482_15629")_ - 1 x_("PDX_SEA_14715_14768",_"SEA_MSY_15060_15437")_ - 1 x_("PDX_SEA_14715_14768",_"SEA_AUS_14856_15227")_ - 1 x_("PDX_SEA_14715_14768",_"SEA_ORD_15012_15365")_ - 1 x_("PDX_SEA_14715_14768",_"SEA_FAI_14896_15115")_ - 1 x_("PDX_SEA_14715_14768",_"SEA_BZN_15162_15306")_ = 0
mp_c2_MSY_SEA_14807_15011_: 1 x_("SEA_MSY_14351_14725",_"MSY_SEA_14807_15011")_ - 1 x_("MSY_SEA_14807_15011",_"SEA_TUS_15472_15686")_ - 1 x_("MSY_SEA_14807_15011",_"SEA_PSP_16272_16438")_ - 1 x_("MSY_SEA_14807_15011",_"SEA_SNA_16306_16484")_ - 1 x_("MSY_SEA_14807_15011",_"SEA_SNA_15482_15629")_ - 1 x_("MSY_SEA_14807_15011",_"SEA_MSY_15060_15437")_ - 1 x_("MSY_SEA_14807_15011",_"SEA_BZN_15162_15306")_ = 0
mp_c2_MSP_SEA_14826_14932_: 1 x_("SEA_MSP_14135_14466",_"MSP_SEA_14826_14932")_ - 1 x_("MSP_SEA_14826_14932",_"SEA_TUS_15472_15686")_ - 1 x_("MSP_SEA_14826_14932",_"SEA_PSP_16272_16438")_ - 1 x_("MSP_SEA_14826_14932",_"SEA_SNA_16306_16484")_ - 1 x_("MSP_SEA_14826_14932",_"SEA_SNA_15482_15629")_ - 1 x_("MSP_SEA_14826_14932",_"SEA_MSY_15060_15437")_ - 1 x_("MSP_SEA_14826_14932",_"SEA_ORD_15012_15365")_ - 1 x_("MSP_SEA_14826_14932",_"SEA_BZN_15162_15306")_ = 0
mp_c2_SEA_AUS_14856_15227_: 1 x_("PHX_SEA_13313_13468",_"SEA_AUS_14856_15227")_ + 1 x_("MSP_SEA_13375_13512",_"SEA_AUS_14856_15227")_ + 1 x_("BOS_SEA_13423_13580",_"SEA_AUS_14856_15227")_ + 1 x_("TUS_SEA_13560_13715",_"SEA_AUS_14856_15227")_ + 1 x_("SMF_SEA_13740_13859",_"SEA_AUS_14856_15227")_ + 1 x_("GEG_SEA_13772_13832",_"SEA_AUS_14856_15227")_ + 1 x_("SJC_SEA_13949_14086",_"SEA_AUS_14856_15227")_ + 1 x_("GEG_SEA_14008_14081",_"SEA_AUS_14856_15227")_ + 1 x_("TPA_SEA_14080_14280",_"SEA_AUS_14856_15227")_ + 1 x_("SNA_SEA_14146_14321",_"SEA_AUS_14856_15227")_ + 1 x_("PDX_SEA_14715_14768",_"SEA_AUS_14856_15227")_ - 1 x_("SEA_AUS_14856_15227",_"AUS_SAN_15307_15389")_ = 0
mp_c2_SEA_FAI_14896_15115_: 1 x_("PHX_SEA_13313_13468",_"SEA_FAI_14896_15115")_ + 1 x_("MSP_SEA_13375_13512",_"SEA_FAI_14896_15115")_ + 1 x_("BOS_SEA_13423_13580",_"SEA_FAI_14896_15115")_ + 1 x_("TUS_SEA_13560_13715",_"SEA_FAI_14896_15115")_ + 1 x_("SMF_SEA_13740_13859",_"SEA_FAI_14896_15115")_ + 1 x_("GEG_SEA_13772_13832",_"SEA_FAI_14896_15115")_ + 1 x_("SJC_SEA_13949_14086",_"SEA_FAI_14896_15115")_ + 1 x_("GEG_SEA_14008_14081",_"SEA_FAI_14896_15115")_ + 1 x_("TPA_SEA_14080_14280",_"SEA_FAI_14896_15115")_ + 1 x_("SNA_SEA_14146_14321",_"SEA_FAI_14896_15115")_ + 1 x_("PDX_SEA_14715_14768",_"SEA_FAI_14896_15115")_ - 1 x_("SEA_FAI_14896_15115",_"FAI_SEA_15162_15418")_ = 0
mp_c2_JNU_SEA_14935_15110_: 1 x_("SEA_JNU_14137_14272",_"JNU_SEA_14935_15110")_ - 1 x_("JNU_SEA_14935_15110",_"SEA_TUS_15472_15686")_ - 1 x_("JNU_SEA_14935_15110",_"SEA_PSP_16272_16438")_ - 1 x_("JNU_SEA_14935_15110",_"SEA_SNA_16306_16484")_ - 1 x_("JNU_SEA_14935_15110",_"SEA_SNA_15482_15629")_ - 1 x_("JNU_SEA_14935_15110",_"SEA_BZN_15162_15306")_ = 0
mp_c2_SEA_ORD_15012_15365_: 1 x_("BOS_SEA_13423_13580",_"SEA_ORD_15012_15365")_ + 1 x_("TUS_SEA_13560_13715",_"SEA_ORD_15012_15365")_ + 1 x_("SMF_SEA_13740_13859",_"SEA_ORD_15012_15365")_ + 1 x_("GEG_SEA_13772_13832",_"SEA_ORD_15012_15365")_ + 1 x_("SJC_SEA_13949_14086",_"SEA_ORD_15012_15365")_ + 1 x_("GEG_SEA_14008_14081",_"SEA_ORD_15012_15365")_ + 1 x_("TPA_SEA_14080_14280",_"SEA_ORD_15012_15365")_ + 1 x_("SNA_SEA_14146_14321",_"SEA_ORD_15012_15365")_ + 1 x_("PDX_SEA_14715_14768",_"SEA_ORD_15012_15365")_ + 1 x_("MSP_SEA_14826_14932",_"SEA_ORD_15012_15365")_ - 1 x_("SEA_ORD_15012_15365",_"ORD_SEA_15462_15662")_ = 0
mp_c2_SEA_MSY_15060_15437_: 1 x_("TUS_SEA_13560_13715",_"SEA_MSY_15060_15437")_ + 1 x_("SMF_SEA_13740_13859",_"SEA_MSY_15060_15437")_ + 1 x_("GEG_SEA_13772_13832",_"SEA_MSY_15060_15437")_ + 1 x_("SJC_SEA_13949_14086",_"SEA_MSY_15060_15437")_ + 1 x_("GEG_SEA_14008_14081",_"SEA_MSY_15060_15437")_ + 1 x_("TPA_SEA_14080_14280",_"SEA_MSY_15060_15437")_ + 1 x_("SNA_SEA_14146_14321",_"SEA_MSY_15060_15437")_ + 1 x_("PDX_SEA_14715_14768",_"SEA_MSY_15060_15437")_ + 1 x_("MSY_SEA_14807_15011",_"SEA_MSY_15060_15437")_ + 1 x_("MSP_SEA_14826_14932",_"SEA_MSY_15060_15437")_ - 1 x_("SEA_MSY_15060_15437",_"MSY_SEA_15510_15716")_ = 0
mp_c2_SEA_BZN_15162_15306_: 1 x_("SMF_SEA_13740_13859",_"SEA_BZN_15162_15306")_ + 1 x_("GEG_SEA_13772_13832",_"SEA_BZN_15162_15306")_ + 1 x_("SJC_SEA_13949_14086",_"SEA_BZN_15162_15306")_ + 1 x_("GEG_SEA_14008_14081",_"SEA_BZN_15162_15306")_ + 1 x_("TPA_SEA_14080_14280",_"SEA_BZN_15162_15306")_ + 1 x_("SNA_SEA_14146_14321",_"SEA_BZN_15162_15306")_ + 1 x_("PDX_SEA_14715_14768",_"SEA_BZN_15162_15306")_ + 1 x_("MSY_SEA_14807_15011",_"SEA_BZN_15162_15306")_ + 1 x_("MSP_SEA_14826_14932",_"SEA_BZN_15162_15306")_ + 1 x_("JNU_SEA_14935_15110",_"SEA_BZN_15162_15306")_ - 1 x_("SEA_BZN_15162_15306",_"BZN_SEA_15356_15417")_ = 0
mp_c2_FAI_SEA_15162_15418_: 1 x_("SEA_FAI_14896_15115",_"FAI_SEA_15162_15418")_ - 1 x_("FAI_SEA_15162_15418",_"SEA_GEG_16768_16829")_ - 1 x_("FAI_SEA_15162_15418",_"SEA_BOI_16599_16734")_ - 1 x_("FAI_SEA_15162_15418",_"SEA_TUS_15472_15686")_ - 1 x_("FAI_SEA_15162_15418",_"SEA_PSP_16272_16438")_ - 1 x_("FAI_SEA_15162_15418",_"SEA_SNA_16306_16484")_ - 1 x_("FAI_SEA_15162_15418",_"SEA_SNA_15482_15629")_ - 1 x_("FAI_SEA_15162_15418",_"SEA_ABQ_16745_16951")_ - 1 x_("FAI_SEA_15162_15418",_"SEA_BZN_16600_16757")_ = 0
mp_c2_AUS_SAN_15307_15389_: 1 x_("SEA_AUS_14856_15227",_"AUS_SAN_15307_15389")_ - 1 x_("AUS_SAN_15307_15389",_"SAN_PDX_15444_15615")_ = 0
mp_c2_BZN_SEA_15356_15417_: 1 x_("SEA_BZN_15162_15306",_"BZN_SEA_15356_15417")_ - 1 x_("BZN_SEA_15356_15417",_"SEA_GEG_16768_16829")_ - 1 x_("BZN_SEA_15356_15417",_"SEA_BOI_16599_16734")_ - 1 x_("BZN_SEA_15356_15417",_"SEA_TUS_15472_15686")_ - 1 x_("BZN_SEA_15356_15417",_"SEA_PSP_16272_16438")_ - 1 x_("BZN_SEA_15356_15417",_"SEA_SNA_16306_16484")_ - 1 x_("BZN_SEA_15356_15417",_"SEA_SNA_15482_15629")_ - 1 x_("BZN_SEA_15356_15417",_"SEA_ABQ_16745_16951")_ - 1 x_("BZN_SEA_15356_15417",_"SEA_BZN_16600_16757")_ = 0
mp_c2_SAN_PDX_15444_15615_: 1 x_("AUS_SAN_15307_15389",_"SAN_PDX_15444_15615")_ - 1 x_("SAN_PDX_15444_15615",_"PDX_ANC_15677_15865")_ - 1 x_("SAN_PDX_15444_15615",_"PDX_AUS_16552_16890")_ = 0
mp_c2_ORD_SEA_15462_15662_: 1 x_("SEA_ORD_15012_15365",_"ORD_SEA_15462_15662")_ - 1 x_("ORD_SEA_15462_15662",_"SEA_GEG_16768_16829")_ - 1 x_("ORD_SEA_15462_15662",_"SEA_DEN_17042_17244")_ - 1 x_("ORD_SEA_15462_15662",_"SEA_BOI_16599_16734")_ - 1 x_("ORD_SEA_15462_15662",_"SEA_PSP_16272_16438")_ - 1 x_("ORD_SEA_15462_15662",_"SEA_SNA_16306_16484")_ - 1 x_("ORD_SEA_15462_15662",_"SEA_SNA_16942_17083")_ - 1 x_("ORD_SEA_15462_15662",_"SEA_ABQ_16745_16951")_ - 1 x_("ORD_SEA_15462_15662",_"SEA_ATL_16907_17347")_ - 1 x_("ORD_SEA_15462_15662",_"SEA_BZN_16600_16757")_ = 0
mp_c2_SEA_TUS_15472_15686_: 1 x_("SJC_SEA_13949_14086",_"SEA_TUS_15472_15686")_ + 1 x_("GEG_SEA_14008_14081",_"SEA_TUS_15472_15686")_ + 1 x_("TPA_SEA_14080_14280",_"SEA_TUS_15472_15686")_ + 1 x_("SNA_SEA_14146_14321",_"SEA_TUS_15472_15686")_ + 1 x_("PDX_SEA_14715_14768",_"SEA_TUS_15472_15686")_ + 1 x_("MSY_SEA_14807_15011",_"SEA_TUS_15472_15686")_ + 1 x_("MSP_SEA_14826_14932",_"SEA_TUS_15472_15686")_ + 1 x_("JNU_SEA_14935_15110",_"SEA_TUS_15472_15686")_ + 1 x_("FAI_SEA_15162_15418",_"SEA_TUS_15472_15686")_ + 1 x_("BZN_SEA_15356_15417",_"SEA_TUS_15472_15686")_ - 1 x_("SEA_TUS_15472_15686",_"TUS_SEA_16376_16543")_ = 0
mp_c2_SEA_SNA_15482_15629_: 1 x_("SJC_SEA_13949_14086",_"SEA_SNA_15482_15629")_ + 1 x_("GEG_SEA_14008_14081",_"SEA_SNA_15482_15629")_ + 1 x_("TPA_SEA_14080_14280",_"SEA_SNA_15482_15629")_ + 1 x_("SNA_SEA_14146_14321",_"SEA_SNA_15482_15629")_ + 1 x_("PDX_SEA_14715_14768",_"SEA_SNA_15482_15629")_ + 1 x_("MSY_SEA_14807_15011",_"SEA_SNA_15482_15629")_ + 1 x_("MSP_SEA_14826_14932",_"SEA_SNA_15482_15629")_ + 1 x_("JNU_SEA_14935_15110",_"SEA_SNA_15482_15629")_ + 1 x_("FAI_SEA_15162_15418",_"SEA_SNA_15482_15629")_ + 1 x_("BZN_SEA_15356_15417",_"SEA_SNA_15482_15629")_ - 1 x_("SEA_SNA_15482_15629",_"SNA_SEA_16531_16707")_ - 1 x_("SEA_SNA_15482_15629",_"SNA_SEA_16357_16540")_ = 0
mp_c2_MSY_SEA_15510_15716_: 1 x_("SEA_MSY_14351_14725",_"MSY_SEA_15510_15716")_ + 1 x_("SEA_MSY_15060_15437",_"MSY_SEA_15510_15716")_ - 1 x_("MSY_SEA_15510_15716",_"SEA_GEG_16768_16829")_ - 1 x_("MSY_SEA_15510_15716",_"SEA_DEN_17042_17244")_ - 1 x_("MSY_SEA_15510_15716",_"SEA_BOI_16599_16734")_ - 1 x_("MSY_SEA_15510_15716",_"SEA_PSP_16272_16438")_ - 1 x_("MSY_SEA_15510_15716",_"SEA_SNA_16306_16484")_ - 1 x_("MSY_SEA_15510_15716",_"SEA_SNA_16942_17083")_ - 1 x_("MSY_SEA_15510_15716",_"SEA_ABQ_16745_16951")_ - 1 x_("MSY_SEA_15510_15716",_"SEA_ATL_16907_17347")_ - 1 x_("MSY_SEA_15510_15716",_"SEA_BZN_16600_16757")_ = 0
mp_c2_PDX_ANC_15677_15865_: 1 x_("SAN_PDX_15444_15615",_"PDX_ANC_15677_15865")_ - 1 x_("PDX_ANC_15677_15865",_"ANC_LAX_15928_16264")_ = 0
mp_c2_ANC_LAX_15928_16264_: 1 x_("PDX_ANC_15677_15865",_"ANC_LAX_15928_16264")_ - 1 x_("ANC_LAX_15928_16264",_"LAX_PDX_16332_16496")_ = 0
mp_c2_SEA_PSP_16272_16438_: 1 x_("MSY_SEA_14807_15011",_"SEA_PSP_16272_16438")_ + 1 x_("MSP_SEA_14826_14932",_"SEA_PSP_16272_16438")_ + 1 x_("JNU_SEA_14935_15110",_"SEA_PSP_16272_16438")_ + 1 x_("FAI_SEA_15162_15418",_"SEA_PSP_16272_16438")_ + 1 x_("BZN_SEA_15356_15417",_"SEA_PSP_16272_16438")_ + 1 x_("ORD_SEA_15462_15662",_"SEA_PSP_16272_16438")_ + 1 x_("MSY_SEA_15510_15716",_"SEA_PSP_16272_16438")_ - 1 x_("SEA_PSP_16272_16438",_"PSP_SEA_16489_16677")_ = 0
mp_c2_SEA_SNA_16306_16484_: 1 x_("MSY_SEA_14807_15011",_"SEA_SNA_16306_16484")_ + 1 x_("MSP_SEA_14826_14932",_"SEA_SNA_16306_16484")_ + 1 x_("JNU_SEA_14935_15110",_"SEA_SNA_16306_16484")_ + 1 x_("FAI_SEA_15162_15418",_"SEA_SNA_16306_16484")_ + 1 x_("BZN_SEA_15356_15417",_"SEA_SNA_16306_16484")_ + 1 x_("ORD_SEA_15462_15662",_"SEA_SNA_16306_16484")_ + 1 x_("MSY_SEA_15510_15716",_"SEA_SNA_16306_16484")_ - 1 x_("SEA_SNA_16306_16484",_"SNA_SEA_16531_16707")_ - 1 x_("SEA_SNA_16306_16484",_"SNA_SEA_17817_17993")_ = 0
mp_c2_LAX_PDX_16332_16496_: 1 x_("ANC_LAX_15928_16264",_"LAX_PDX_16332_16496")_ - 1 x_("LAX_PDX_16332_16496",_"PDX_AUS_16552_16890")_ = 0
mp_c2_SNA_SEA_16357_16540_: 1 x_("SEA_SNA_15482_15629",_"SNA_SEA_16357_16540")_ - 1 x_("SNA_SEA_16357_16540",_"SEA_GEG_16768_16829")_ - 1 x_("SNA_SEA_16357_16540",_"SEA_PSP_17701_17847")_ - 1 x_("SNA_SEA_16357_16540",_"SEA_DEN_17042_17244")_ - 1 x_("SNA_SEA_16357_16540",_"SEA_BOI_16599_16734")_ - 1 x_("SNA_SEA_16357_16540",_"SEA_TPA_17215_17682")_ - 1 x_("SNA_SEA_16357_16540",_"SEA_BOI_17952_18088")_ - 1 x_("SNA_SEA_16357_16540",_"SEA_SNA_16942_17083")_ - 1 x_("SNA_SEA_16357_16540",_"SEA_ABQ_16745_16951")_ - 1 x_("SNA_SEA_16357_16540",_"SEA_ATL_16907_17347")_ - 1 x_("SNA_SEA_16357_16540",_"SEA_BZN_16600_16757")_ = 0
mp_c2_TUS_SEA_16376_16543_: 1 x_("SEA_TUS_15472_15686",_"TUS_SEA_16376_16543")_ - 1 x_("TUS_SEA_16376_16543",_"SEA_GEG_16768_16829")_ - 1 x_("TUS_SEA_16376_16543",_"SEA_PSP_17701_17847")_ - 1 x_("TUS_SEA_16376_16543",_"SEA_DEN_17042_17244")_ - 1 x_("TUS_SEA_16376_16543",_"SEA_BOI_16599_16734")_ - 1 x_("TUS_SEA_16376_16543",_"SEA_TPA_17215_17682")_ - 1 x_("TUS_SEA_16376_16543",_"SEA_BOI_17952_18088")_ - 1 x_("TUS_SEA_16376_16543",_"SEA_SNA_16942_17083")_ - 1 x_("TUS_SEA_16376_16543",_"SEA_ABQ_16745_16951")_ - 1 x_("TUS_SEA_16376_16543",_"SEA_ATL_16907_17347")_ - 1 x_("TUS_SEA_16376_16543",_"SEA_BZN_16600_16757")_ = 0
mp_c2_PSP_SEA_16489_16677_: 1 x_("SEA_PSP_16272_16438",_"PSP_SEA_16489_16677")_ - 1 x_("PSP_SEA_16489_16677",_"SEA_BNA_18036_18399")_ - 1 x_("PSP_SEA_16489_16677",_"SEA_GEG_16768_16829")_ - 1 x_("PSP_SEA_16489_16677",_"SEA_PSP_17701_17847")_ - 1 x_("PSP_SEA_16489_16677",_"SEA_DEN_17042_17244")_ - 1 x_("PSP_SEA_16489_16677",_"SEA_TPA_17215_17682")_ - 1 x_("PSP_SEA_16489_16677",_"SEA_BOI_17952_18088")_ - 1 x_("PSP_SEA_16489_16677",_"SEA_SNA_16942_17083")_ - 1 x_("PSP_SEA_16489_16677",_"SEA_ABQ_16745_16951")_ - 1 x_("PSP_SEA_16489_16677",_"SEA_PHX_18088_18307")_ - 1 x_("PSP_SEA_16489_16677",_"SEA_ATL_16907_17347")_ - 1 x_("PSP_SEA_16489_16677",_"SEA_BOS_18088_18571")_ = 0
mp_c2_SNA_SEA_16531_16707_: 1 x_("SEA_SNA_15482_15629",_"SNA_SEA_16531_16707")_ + 1 x_("SEA_SNA_16306_16484",_"SNA_SEA_16531_16707")_ - 1 x_("SNA_SEA_16531_16707",_"SEA_BNA_18036_18399")_ - 1 x_("SNA_SEA_16531_16707",_"SEA_GEG_16768_16829")_ - 1 x_("SNA_SEA_16531_16707",_"SEA_PSP_17701_17847")_ - 1 x_("SNA_SEA_16531_16707",_"SEA_DEN_17042_17244")_ - 1 x_("SNA_SEA_16531_16707",_"SEA_TPA_17215_17682")_ - 1 x_("SNA_SEA_16531_16707",_"SEA_BOI_17952_18088")_ - 1 x_("SNA_SEA_16531_16707",_"SEA_SNA_16942_17083")_ - 1 x_("SNA_SEA_16531_16707",_"SEA_TUS_18139_18362")_ - 1 x_("SNA_SEA_16531_16707",_"SEA_ABQ_16745_16951")_ - 1 x_("SNA_SEA_16531_16707",_"SEA_PHX_18088_18307")_ - 1 x_("SNA_SEA_16531_16707",_"SEA_ATL_16907_17347")_ - 1 x_("SNA_SEA_16531_16707",_"SEA_BOS_18088_18571")_ = 0
mp_c2_PDX_AUS_16552_16890_: 1 x_("SAN_PDX_15444_15615",_"PDX_AUS_16552_16890")_ + 1 x_("LAX_PDX_16332_16496",_"PDX_AUS_16552_16890")_ - 1 x_("PDX_AUS_16552_16890",_"AUS_SEA_16960_17132")_ = 0
mp_c2_SEA_BOI_16599_16734_: 1 x_("FAI_SEA_15162_15418",_"SEA_BOI_16599_16734")_ + 1 x_("BZN_SEA_15356_15417",_"SEA_BOI_16599_16734")_ + 1 x_("ORD_SEA_15462_15662",_"SEA_BOI_16599_16734")_ + 1 x_("MSY_SEA_15510_15716",_"SEA_BOI_16599_16734")_ + 1 x_("SNA_SEA_16357_16540",_"SEA_BOI_16599_16734")_ + 1 x_("TUS_SEA_16376_16543",_"SEA_BOI_16599_16734")_ - 1 x_("SEA_BOI_16599_16734",_"BOI_SEA_16792_16828")_ - 1 x_("SEA_BOI_16599_16734",_"BOI_SEA_18158_18240")_ = 0
mp_c2_SEA_BZN_16600_16757_: 1 x_("FAI_SEA_15162_15418",_"SEA_BZN_16600_16757")_ + 1 x_("BZN_SEA_15356_15417",_"SEA_BZN_16600_16757")_ + 1 x_("ORD_SEA_15462_15662",_"SEA_BZN_16600_16757")_ + 1 x_("MSY_SEA_15510_15716",_"SEA_BZN_16600_16757")_ + 1 x_("SNA_SEA_16357_16540",_"SEA_BZN_16600_16757")_ + 1 x_("TUS_SEA_16376_16543",_"SEA_BZN_16600_16757")_ - 1 x_("SEA_BZN_16600_16757",_"BZN_SEA_16802_16891")_ = 0
mp_c2_SEA_ABQ_16745_16951_: 1 x_("FAI_SEA_15162_15418",_"SEA_ABQ_16745_16951")_ + 1 x_("BZN_SEA_15356_15417",_"SEA_ABQ_16745_16951")_ + 1 x_("ORD_SEA_15462_15662",_"SEA_ABQ_16745_16951")_ + 1 x_("MSY_SEA_15510_15716",_"SEA_ABQ_16745_16951")_ + 1 x_("SNA_SEA_16357_16540",_"SEA_ABQ_16745_16951")_ + 1 x_("TUS_SEA_16376_16543",_"SEA_ABQ_16745_16951")_ + 1 x_("PSP_SEA_16489_16677",_"SEA_ABQ_16745_16951")_ + 1 x_("SNA_SEA_16531_16707",_"SEA_ABQ_16745_16951")_ - 1 x_("SEA_ABQ_16745_16951",_"ABQ_SEA_17007_17164")_ = 0
mp_c2_SEA_GEG_16768_16829_: 1 x_("FAI_SEA_15162_15418",_"SEA_GEG_16768_16829")_ + 1 x_("BZN_SEA_15356_15417",_"SEA_GEG_16768_16829")_ + 1 x_("ORD_SEA_15462_15662",_"SEA_GEG_16768_16829")_ + 1 x_("MSY_SEA_15510_15716",_"SEA_GEG_16768_16829")_ + 1 x_("SNA_SEA_16357_16540",_"SEA_GEG_16768_16829")_ + 1 x_("TUS_SEA_16376_16543",_"SEA_GEG_16768_16829")_ + 1 x_("PSP_SEA_16489_16677",_"SEA_GEG_16768_16829")_ + 1 x_("SNA_SEA_16531_16707",_"SEA_GEG_16768_16829")_ - 1 x_("SEA_GEG_16768_16829",_"GEG_SEA_16891_16961")_ = 0
mp_c2_BOI_SEA_16792_16828_: 1 x_("SEA_BOI_16599_16734",_"BOI_SEA_16792_16828")_ - 1 x_("BOI_SEA_16792_16828",_"SEA_BNA_18036_18399")_ - 1 x_("BOI_SEA_16792_16828",_"SEA_PSP_17701_17847")_ - 1 x_("BOI_SEA_16792_16828",_"SEA_DEN_17042_17244")_ - 1 x_("BOI_SEA_16792_16828",_"SEA_TPA_17215_17682")_ - 1 x_("BOI_SEA_16792_16828",_"SEA_BOI_17952_18088")_ - 1 x_("BOI_SEA_16792_16828",_"SEA_SNA_16942_17083")_ - 1 x_("BOI_SEA_16792_16828",_"SEA_TUS_18139_18362")_ - 1 x_("BOI_SEA_16792_16828",_"SEA_PHX_18088_18307")_ - 1 x_("BOI_SEA_16792_16828",_"SEA_ATL_16907_17347")_ - 1 x_("BOI_SEA_16792_16828",_"SEA_BOS_18088_18571")_ = 0
mp_c2_BZN_SEA_16802_16891_: 1 x_("SEA_BZN_16600_16757",_"BZN_SEA_16802_16891")_ - 1 x_("BZN_SEA_16802_16891",_"SEA_BNA_18036_18399")_ - 1 x_("BZN_SEA_16802_16891",_"SEA_PSP_17701_17847")_ - 1 x_("BZN_SEA_16802_16891",_"SEA_DEN_17042_17244")_ - 1 x_("BZN_SEA_16802_16891",_"SEA_TPA_17215_17682")_ - 1 x_("BZN_SEA_16802_16891",_"SEA_BOI_17952_18088")_ - 1 x_("BZN_SEA_16802_16891",_"SEA_SNA_16942_17083")_ - 1 x_("BZN_SEA_16802_16891",_"SEA_TUS_18139_18362")_ - 1 x_("BZN_SEA_16802_16891",_"SEA_PHX_18088_18307")_ - 1 x_("BZN_SEA_16802_16891",_"SEA_BOS_18088_18571")_ = 0
mp_c2_GEG_SEA_16891_16961_: 1 x_("SEA_GEG_16768_16829",_"GEG_SEA_16891_16961")_ - 1 x_("GEG_SEA_16891_16961",_"SEA_BNA_18036_18399")_ - 1 x_("GEG_SEA_16891_16961",_"SEA_PSP_17701_17847")_ - 1 x_("GEG_SEA_16891_16961",_"SEA_DEN_17042_17244")_ - 1 x_("GEG_SEA_16891_16961",_"SEA_TPA_17215_17682")_ - 1 x_("GEG_SEA_16891_16961",_"SEA_BOI_17952_18088")_ - 1 x_("GEG_SEA_16891_16961",_"SEA_TUS_18139_18362")_ - 1 x_("GEG_SEA_16891_16961",_"SEA_PHX_18088_18307")_ - 1 x_("GEG_SEA_16891_16961",_"SEA_BOS_18088_18571")_ = 0
mp_c2_SEA_ATL_16907_17347_: 1 x_("ORD_SEA_15462_15662",_"SEA_ATL_16907_17347")_ + 1 x_("MSY_SEA_15510_15716",_"SEA_ATL_16907_17347")_ + 1 x_("SNA_SEA_16357_16540",_"SEA_ATL_16907_17347")_ + 1 x_("TUS_SEA_16376_16543",_"SEA_ATL_16907_17347")_ + 1 x_("PSP_SEA_16489_16677",_"SEA_ATL_16907_17347")_ + 1 x_("SNA_SEA_16531_16707",_"SEA_ATL_16907_17347")_ + 1 x_("BOI_SEA_16792_16828",_"SEA_ATL_16907_17347")_ - 1 x_("SEA_ATL_16907_17347",_"ATL_SEA_17695_17854")_ = 0
mp_c2_SEA_SNA_16942_17083_: 1 x_("ORD_SEA_15462_15662",_"SEA_SNA_16942_17083")_ + 1 x_("MSY_SEA_15510_15716",_"SEA_SNA_16942_17083")_ + 1 x_("SNA_SEA_16357_16540",_"SEA_SNA_16942_17083")_ + 1 x_("TUS_SEA_16376_16543",_"SEA_SNA_16942_17083")_ + 1 x_("PSP_SEA_16489_16677",_"SEA_SNA_16942_17083")_ + 1 x_("SNA_SEA_16531_16707",_"SEA_SNA_16942_17083")_ + 1 x_("BOI_SEA_16792_16828",_"SEA_SNA_16942_17083")_ + 1 x_("BZN_SEA_16802_16891",_"SEA_SNA_16942_17083")_ - 1 x_("SEA_SNA_16942_17083",_"SNA_SEA_17817_17993")_ = 0
mp_c2_AUS_SEA_16960_17132_: 1 x_("PDX_AUS_16552_16890",_"AUS_SEA_16960_17132")_ - 1 x_("AUS_SEA_16960_17132",_"SEA_BNA_18036_18399")_ - 1 x_("AUS_SEA_16960_17132",_"SEA_PSP_17701_17847")_ - 1 x_("AUS_SEA_16960_17132",_"SEA_TPA_17215_17682")_ - 1 x_("AUS_SEA_16960_17132",_"SEA_BOI_17952_18088")_ - 1 x_("AUS_SEA_16960_17132",_"SEA_TUS_18139_18362")_ - 1 x_("AUS_SEA_16960_17132",_"SEA_PHX_18088_18307")_ - 1 x_("AUS_SEA_16960_17132",_"SEA_BOS_18088_18571")_ = 0
mp_c2_ABQ_SEA_17007_17164_: 1 x_("SEA_ABQ_16745_16951",_"ABQ_SEA_17007_17164")_ - 1 x_("ABQ_SEA_17007_17164",_"SEA_BNA_18036_18399")_ - 1 x_("ABQ_SEA_17007_17164",_"SEA_PSP_17701_17847")_ - 1 x_("ABQ_SEA_17007_17164",_"SEA_TPA_17215_17682")_ - 1 x_("ABQ_SEA_17007_17164",_"SEA_BOI_17952_18088")_ - 1 x_("ABQ_SEA_17007_17164",_"SEA_TUS_18139_18362")_ - 1 x_("ABQ_SEA_17007_17164",_"SEA_PHX_18088_18307")_ - 1 x_("ABQ_SEA_17007_17164",_"SEA_BOS_18088_18571")_ = 0
mp_c2_SEA_DEN_17042_17244_: 1 x_("ORD_SEA_15462_15662",_"SEA_DEN_17042_17244")_ + 1 x_("MSY_SEA_15510_15716",_"SEA_DEN_17042_17244")_ + 1 x_("SNA_SEA_16357_16540",_"SEA_DEN_17042_17244")_ + 1 x_("TUS_SEA_16376_16543",_"SEA_DEN_17042_17244")_ + 1 x_("PSP_SEA_16489_16677",_"SEA_DEN_17042_17244")_ + 1 x_("SNA_SEA_16531_16707",_"SEA_DEN_17042_17244")_ + 1 x_("BOI_SEA_16792_16828",_"SEA_DEN_17042_17244")_ + 1 x_("BZN_SEA_16802_16891",_"SEA_DEN_17042_17244")_ + 1 x_("GEG_SEA_16891_16961",_"SEA_DEN_17042_17244")_ - 1 x_("SEA_DEN_17042_17244",_"DEN_SEA_17781_17944")_ = 0
mp_c2_SEA_TPA_17215_17682_: 1 x_("SNA_SEA_16357_16540",_"SEA_TPA_17215_17682")_ + 1 x_("TUS_SEA_16376_16543",_"SEA_TPA_17215_17682")_ + 1 x_("PSP_SEA_16489_16677",_"SEA_TPA_17215_17682")_ + 1 x_("SNA_SEA_16531_16707",_"SEA_TPA_17215_17682")_ + 1 x_("BOI_SEA_16792_16828",_"SEA_TPA_17215_17682")_ + 1 x_("BZN_SEA_16802_16891",_"SEA_TPA_17215_17682")_ + 1 x_("GEG_SEA_16891_16961",_"SEA_TPA_17215_17682")_ + 1 x_("AUS_SEA_16960_17132",_"SEA_TPA_17215_17682")_ + 1 x_("ABQ_SEA_17007_17164",_"SEA_TPA_17215_17682")_ - 1 x_("SEA_TPA_17215_17682",_"TPA_SEA_17773_17981")_ = 0
mp_c2_ATL_SEA_17695_17854_: 1 x_("SEA_ATL_16907_17347",_"ATL_SEA_17695_17854")_ - 1 x_("ATL_SEA_17695_17854",_"SEA_BNA_18036_18399")_ - 1 x_("ATL_SEA_17695_17854",_"SEA_SAN_19141_19296")_ - 1 x_("ATL_SEA_17695_17854",_"SEA_BOI_17952_18088")_ - 1 x_("ATL_SEA_17695_17854",_"SEA_TUS_18139_18362")_ - 1 x_("ATL_SEA_17695_17854",_"SEA_SNA_19091_19255")_ - 1 x_("ATL_SEA_17695_17854",_"SEA_PHX_18088_18307")_ - 1 x_("ATL_SEA_17695_17854",_"SEA_BOS_18088_18571")_ = 0
mp_c2_SEA_PSP_17701_17847_: 1 x_("SNA_SEA_16357_16540",_"SEA_PSP_17701_17847")_ + 1 x_("TUS_SEA_16376_16543",_"SEA_PSP_17701_17847")_ + 1 x_("PSP_SEA_16489_16677",_"SEA_PSP_17701_17847")_ + 1 x_("SNA_SEA_16531_16707",_"SEA_PSP_17701_17847")_ + 1 x_("BOI_SEA_16792_16828",_"SEA_PSP_17701_17847")_ + 1 x_("BZN_SEA_16802_16891",_"SEA_PSP_17701_17847")_ + 1 x_("GEG_SEA_16891_16961",_"SEA_PSP_17701_17847")_ + 1 x_("AUS_SEA_16960_17132",_"SEA_PSP_17701_17847")_ + 1 x_("ABQ_SEA_17007_17164",_"SEA_PSP_17701_17847")_ - 1 x_("SEA_PSP_17701_17847",_"PSP_SEA_17919_18082")_ = 0
mp_c2_TPA_SEA_17773_17981_: 1 x_("SEA_TPA_17215_17682",_"TPA_SEA_17773_17981")_ - 1 x_("TPA_SEA_17773_17981",_"SEA_BNA_18036_18399")_ - 1 x_("TPA_SEA_17773_17981",_"SEA_SAN_19141_19296")_ - 1 x_("TPA_SEA_17773_17981",_"SEA_TUS_18139_18362")_ - 1 x_("TPA_SEA_17773_17981",_"SEA_SNA_19091_19255")_ - 1 x_("TPA_SEA_17773_17981",_"SEA_DAL_19410_19742")_ - 1 x_("TPA_SEA_17773_17981",_"SEA_PHX_18088_18307")_ - 1 x_("TPA_SEA_17773_17981",_"SEA_TUS_19409_19642")_ - 1 x_("TPA_SEA_17773_17981",_"SEA_BOS_18088_18571")_ = 0
mp_c2_DEN_SEA_17781_17944_: 1 x_("SEA_DEN_17042_17244",_"DEN_SEA_17781_17944")_ - 1 x_("DEN_SEA_17781_17944",_"SEA_BNA_18036_18399")_ - 1 x_("DEN_SEA_17781_17944",_"SEA_SAN_19141_19296")_ - 1 x_("DEN_SEA_17781_17944",_"SEA_TUS_18139_18362")_ - 1 x_("DEN_SEA_17781_17944",_"SEA_SNA_19091_19255")_ - 1 x_("DEN_SEA_17781_17944",_"SEA_PHX_18088_18307")_ - 1 x_("DEN_SEA_17781_17944",_"SEA_BOS_18088_18571")_ = 0
mp_c2_SNA_SEA_17817_17993_: 1 x_("SEA_SNA_16306_16484",_"SNA_SEA_17817_17993")_ + 1 x_("SEA_SNA_16942_17083",_"SNA_SEA_17817_17993")_ - 1 x_("SNA_SEA_17817_17993",_"SEA_BNA_18036_18399")_ - 1 x_("SNA_SEA_17817_17993",_"SEA_SAN_19141_19296")_ - 1 x_("SNA_SEA_17817_17993",_"SEA_TUS_18139_18362")_ - 1 x_("SNA_SEA_17817_17993",_"SEA_SNA_19091_19255")_ - 1 x_("SNA_SEA_17817_17993",_"SEA_DAL_19410_19742")_ - 1 x_("SNA_SEA_17817_17993",_"SEA_PHX_18088_18307")_ - 1 x_("SNA_SEA_17817_17993",_"SEA_TUS_19409_19642")_ - 1 x_("SNA_SEA_17817_17993",_"SEA_BOS_18088_18571")_ = 0
mp_c2_PSP_SEA_17919_18082_: 1 x_("SEA_PSP_17701_17847",_"PSP_SEA_17919_18082")_ - 1 x_("PSP_SEA_17919_18082",_"SEA_SAN_19141_19296")_ - 1 x_("PSP_SEA_17919_18082",_"SEA_TUS_18139_18362")_ - 1 x_("PSP_SEA_17919_18082",_"SEA_SNA_19091_19255")_ - 1 x_("PSP_SEA_17919_18082",_"SEA_DAL_19410_19742")_ - 1 x_("PSP_SEA_17919_18082",_"SEA_TUS_19409_19642")_ = 0
mp_c2_SEA_BOI_17952_18088_: 1 x_("SNA_SEA_16357_16540",_"SEA_BOI_17952_18088")_ + 1 x_("TUS_SEA_16376_16543",_"SEA_BOI_17952_18088")_ + 1 x_("PSP_SEA_16489_16677",_"SEA_BOI_17952_18088")_ + 1 x_("SNA_SEA_16531_16707",_"SEA_BOI_17952_18088")_ + 1 x_("BOI_SEA_16792_16828",_"SEA_BOI_17952_18088")_ + 1 x_("BZN_SEA_16802_16891",_"SEA_BOI_17952_18088")_ + 1 x_("GEG_SEA_16891_16961",_"SEA_BOI_17952_18088")_ + 1 x_("AUS_SEA_16960_17132",_"SEA_BOI_17952_18088")_ + 1 x_("ABQ_SEA_17007_17164",_"SEA_BOI_17952_18088")_ + 1 x_("ATL_SEA_17695_17854",_"SEA_BOI_17952_18088")_ - 1 x_("SEA_BOI_17952_18088",_"BOI_SEA_18158_18240")_ = 0
mp_c2_SEA_BNA_18036_18399_: 1 x_("PSP_SEA_16489_16677",_"SEA_BNA_18036_18399")_ + 1 x_("SNA_SEA_16531_16707",_"SEA_BNA_18036_18399")_ + 1 x_("BOI_SEA_16792_16828",_"SEA_BNA_18036_18399")_ + 1 x_("BZN_SEA_16802_16891",_"SEA_BNA_18036_18399")_ + 1 x_("GEG_SEA_16891_16961",_"SEA_BNA_18036_18399")_ + 1 x_("AUS_SEA_16960_17132",_"SEA_BNA_18036_18399")_ + 1 x_("ABQ_SEA_17007_17164",_"SEA_BNA_18036_18399")_ + 1 x_("ATL_SEA_17695_17854",_"SEA_BNA_18036_18399")_ + 1 x_("TPA_SEA_17773_17981",_"SEA_BNA_18036_18399")_ + 1 x_("DEN_SEA_17781_17944",_"SEA_BNA_18036_18399")_ + 1 x_("SNA_SEA_17817_17993",_"SEA_BNA_18036_18399")_ - 1 x_("SEA_BNA_18036_18399",_"BNA_SEA_19135_19352")_ = 0
mp_c2_SEA_BOS_18088_18571_: 1 x_("PSP_SEA_16489_16677",_"SEA_BOS_18088_18571")_ + 1 x_("SNA_SEA_16531_16707",_"SEA_BOS_18088_18571")_ + 1 x_("BOI_SEA_16792_16828",_"SEA_BOS_18088_18571")_ + 1 x_("BZN_SEA_16802_16891",_"SEA_BOS_18088_18571")_ + 1 x_("GEG_SEA_16891_16961",_"SEA_BOS_18088_18571")_ + 1 x_("AUS_SEA_16960_17132",_"SEA_BOS_18088_18571")_ + 1 x_("ABQ_SEA_17007_17164",_"SEA_BOS_18088_18571")_ + 1 x_("ATL_SEA_17695_17854",_"SEA_BOS_18088_18571")_ + 1 x_("TPA_SEA_17773_17981",_"SEA_BOS_18088_18571")_ + 1 x_("DEN_SEA_17781_17944",_"SEA_BOS_18088_18571")_ + 1 x_("SNA_SEA_17817_17993",_"SEA_BOS_18088_18571")_ - 1 x_("SEA_BOS_18088_18571",_"BOS_SEA_18621_18803")_ = 0
mp_c2_SEA_PHX_18088_18307_: 1 x_("PSP_SEA_16489_16677",_"SEA_PHX_18088_18307")_ + 1 x_("SNA_SEA_16531_16707",_"SEA_PHX_18088_18307")_ + 1 x_("BOI_SEA_16792_16828",_"SEA_PHX_18088_18307")_ + 1 x_("BZN_SEA_16802_16891",_"SEA_PHX_18088_18307")_ + 1 x_("GEG_SEA_16891_16961",_"SEA_PHX_18088_18307")_ + 1 x_("AUS_SEA_16960_17132",_"SEA_PHX_18088_18307")_ + 1 x_("ABQ_SEA_17007_17164",_"SEA_PHX_18088_18307")_ + 1 x_("ATL_SEA_17695_17854",_"SEA_PHX_18088_18307")_ + 1 x_("TPA_SEA_17773_17981",_"SEA_PHX_18088_18307")_ + 1 x_("DEN_SEA_17781_17944",_"SEA_PHX_18088_18307")_ + 1 x_("SNA_SEA_17817_17993",_"SEA_PHX_18088_18307")_ - 1 x_("SEA_PHX_18088_18307",_"PHX_PDX_18386_18502")_ = 0
mp_c2_SEA_TUS_18139_18362_: 1 x_("SNA_SEA_16531_16707",_"SEA_TUS_18139_18362")_ + 1 x_("BOI_SEA_16792_16828",_"SEA_TUS_18139_18362")_ + 1 x_("BZN_SEA_16802_16891",_"SEA_TUS_18139_18362")_ + 1 x_("GEG_SEA_16891_16961",_"SEA_TUS_18139_18362")_ + 1 x_("AUS_SEA_16960_17132",_"SEA_TUS_18139_18362")_ + 1 x_("ABQ_SEA_17007_17164",_"SEA_TUS_18139_18362")_ + 1 x_("ATL_SEA_17695_17854",_"SEA_TUS_18139_18362")_ + 1 x_("TPA_SEA_17773_17981",_"SEA_TUS_18139_18362")_ + 1 x_("DEN_SEA_17781_17944",_"SEA_TUS_18139_18362")_ + 1 x_("SNA_SEA_17817_17993",_"SEA_TUS_18139_18362")_ + 1 x_("PSP_SEA_17919_18082",_"SEA_TUS_18139_18362")_ - 1 x_("SEA_TUS_18139_18362",_"TUS_SEA_19702_19837")_ - 1 x_("SEA_TUS_18139_18362",_"TUS_SEA_19192_19345")_ = 0
mp_c2_BOI_SEA_18158_18240_: 1 x_("SEA_BOI_16599_16734",_"BOI_SEA_18158_18240")_ + 1 x_("SEA_BOI_17952_18088",_"BOI_SEA_18158_18240")_ - 1 x_("BOI_SEA_18158_18240",_"SEA_SAN_19141_19296")_ - 1 x_("BOI_SEA_18158_18240",_"SEA_BUR_19612_19742")_ - 1 x_("BOI_SEA_18158_18240",_"SEA_SNA_19091_19255")_ - 1 x_("BOI_SEA_18158_18240",_"SEA_DAL_19410_19742")_ - 1 x_("BOI_SEA_18158_18240",_"SEA_DEN_19533_19753")_ - 1 x_("BOI_SEA_18158_18240",_"SEA_TUS_19409_19642")_ = 0
mp_c2_PHX_PDX_18386_18502_: 1 x_("SEA_PHX_18088_18307",_"PHX_PDX_18386_18502")_ - 1 x_("PHX_PDX_18386_18502",_"PDX_SNA_19778_19909")_ - 1 x_("PHX_PDX_18386_18502",_"PDX_BUR_19379_19517")_ = 0
mp_c2_BOS_SEA_18621_18803_: 1 x_("SEA_BOS_18088_18571",_"BOS_SEA_18621_18803")_ - 1 x_("BOS_SEA_18621_18803",_"SEA_SAN_19141_19296")_ - 1 x_("BOS_SEA_18621_18803",_"SEA_RDM_19919_19997")_ - 1 x_("BOS_SEA_18621_18803",_"SEA_BUR_19612_19742")_ - 1 x_("BOS_SEA_18621_18803",_"SEA_SNA_19091_19255")_ - 1 x_("BOS_SEA_18621_18803",_"SEA_DAL_19410_19742")_ - 1 x_("BOS_SEA_18621_18803",_"SEA_DEN_19533_19753")_ - 1 x_("BOS_SEA_18621_18803",_"SEA_ANC_19993_20169")_ - 1 x_("BOS_SEA_18621_18803",_"SEA_TUS_19409_19642")_ - 1 x_("BOS_SEA_18621_18803",_"t")_ = 0
mp_c2_SEA_SNA_19091_19255_: 1 x_("ATL_SEA_17695_17854",_"SEA_SNA_19091_19255")_ + 1 x_("TPA_SEA_17773_17981",_"SEA_SNA_19091_19255")_ + 1 x_("DEN_SEA_17781_17944",_"SEA_SNA_19091_19255")_ + 1 x_("SNA_SEA_17817_17993",_"SEA_SNA_19091_19255")_ + 1 x_("PSP_SEA_17919_18082",_"SEA_SNA_19091_19255")_ + 1 x_("BOI_SEA_18158_18240",_"SEA_SNA_19091_19255")_ + 1 x_("BOS_SEA_18621_18803",_"SEA_SNA_19091_19255")_ - 1 x_("SEA_SNA_19091_19255",_"SNA_PDX_19948_20103")_ - 1 x_("SEA_SNA_19091_19255",_"SNA_SEA_19300_19472")_ - 1 x_("SEA_SNA_19091_19255",_"t")_ = 0
mp_c2_BNA_SEA_19135_19352_: 1 x_("SEA_BNA_18036_18399",_"BNA_SEA_19135_19352")_ - 1 x_("BNA_SEA_19135_19352",_"SEA_RDM_19919_19997")_ - 1 x_("BNA_SEA_19135_19352",_"SEA_BUR_19612_19742")_ - 1 x_("BNA_SEA_19135_19352",_"SEA_DAL_19410_19742")_ - 1 x_("BNA_SEA_19135_19352",_"SEA_DEN_19533_19753")_ - 1 x_("BNA_SEA_19135_19352",_"SEA_ANC_19993_20169")_ - 1 x_("BNA_SEA_19135_19352",_"SEA_TUS_19409_19642")_ - 1 x_("BNA_SEA_19135_19352",_"t")_ = 0
mp_c2_SEA_SAN_19141_19296_: 1 x_("ATL_SEA_17695_17854",_"SEA_SAN_19141_19296")_ + 1 x_("TPA_SEA_17773_17981",_"SEA_SAN_19141_19296")_ + 1 x_("DEN_SEA_17781_17944",_"SEA_SAN_19141_19296")_ + 1 x_("SNA_SEA_17817_17993",_"SEA_SAN_19141_19296")_ + 1 x_("PSP_SEA_17919_18082",_"SEA_SAN_19141_19296")_ + 1 x_("BOI_SEA_18158_18240",_"SEA_SAN_19141_19296")_ + 1 x_("BOS_SEA_18621_18803",_"SEA_SAN_19141_19296")_ - 1 x_("SEA_SAN_19141_19296",_"SAN_SEA_19361_19548")_ - 1 x_("SEA_SAN_19141_19296",_"t")_ = 0
mp_c2_TUS_SEA_19192_19345_: 1 x_("SEA_TUS_18139_18362",_"TUS_SEA_19192_19345")_ - 1 x_("TUS_SEA_19192_19345",_"SEA_RDM_19919_19997")_ - 1 x_("TUS_SEA_19192_19345",_"SEA_BUR_19612_19742")_ - 1 x_("TUS_SEA_19192_19345",_"SEA_DAL_19410_19742")_ - 1 x_("TUS_SEA_19192_19345",_"SEA_DEN_19533_19753")_ - 1 x_("TUS_SEA_19192_19345",_"SEA_ANC_19993_20169")_ - 1 x_("TUS_SEA_19192_19345",_"SEA_TUS_19409_19642")_ - 1 x_("TUS_SEA_19192_19345",_"t")_ = 0
mp_c2_SNA_SEA_19300_19472_: 1 x_("SEA_SNA_19091_19255",_"SNA_SEA_19300_19472")_ - 1 x_("SNA_SEA_19300_19472",_"SEA_RDM_19919_19997")_ - 1 x_("SNA_SEA_19300_19472",_"SEA_BUR_19612_19742")_ - 1 x_("SNA_SEA_19300_19472",_"SEA_DEN_19533_19753")_ - 1 x_("SNA_SEA_19300_19472",_"SEA_ANC_19993_20169")_ - 1 x_("SNA_SEA_19300_19472",_"t")_ = 0
mp_c2_SAN_SEA_19361_19548_: 1 x_("SEA_SAN_19141_19296",_"SAN_SEA_19361_19548")_ - 1 x_("SAN_SEA_19361_19548",_"SEA_RDM_19919_19997")_ - 1 x_("SAN_SEA_19361_19548",_"SEA_BUR_19612_19742")_ - 1 x_("SAN_SEA_19361_19548",_"SEA_ANC_19993_20169")_ - 1 x_("SAN_SEA_19361_19548",_"t")_ = 0
mp_c2_PDX_BUR_19379_19517_: 1 x_("PHX_PDX_18386_18502",_"PDX_BUR_19379_19517")_ - 1 x_("PDX_BUR_19379_19517",_"BUR_PDX_19570_19722")_ - 1 x_("PDX_BUR_19379_19517",_"BUR_SEA_19808_19983")_ - 1 x_("PDX_BUR_19379_19517",_"t")_ = 0
mp_c2_SEA_TUS_19409_19642_: 1 x_("TPA_SEA_17773_17981",_"SEA_TUS_19409_19642")_ + 1 x_("SNA_SEA_17817_17993",_"SEA_TUS_19409_19642")_ + 1 x_("PSP_SEA_17919_18082",_"SEA_TUS_19409_19642")_ + 1 x_("BOI_SEA_18158_18240",_"SEA_TUS_19409_19642")_ + 1 x_("BOS_SEA_18621_18803",_"SEA_TUS_19409_19642")_ + 1 x_("BNA_SEA_19135_19352",_"SEA_TUS_19409_19642")_ + 1 x_("TUS_SEA_19192_19345",_"SEA_TUS_19409_19642")_ - 1 x_("SEA_TUS_19409_19642",_"TUS_SEA_19702_19837")_ - 1 x_("SEA_TUS_19409_19642",_"t")_ = 0
mp_c2_SEA_DAL_19410_19742_: 1 x_("TPA_SEA_17773_17981",_"SEA_DAL_19410_19742")_ + 1 x_("SNA_SEA_17817_17993",_"SEA_DAL_19410_19742")_ + 1 x_("PSP_SEA_17919_18082",_"SEA_DAL_19410_19742")_ + 1 x_("BOI_SEA_18158_18240",_"SEA_DAL_19410_19742")_ + 1 x_("BOS_SEA_18621_18803",_"SEA_DAL_19410_19742")_ + 1 x_("BNA_SEA_19135_19352",_"SEA_DAL_19410_19742")_ + 1 x_("TUS_SEA_19192_19345",_"SEA_DAL_19410_19742")_ - 1 x_("SEA_DAL_19410_19742",_"DAL_SEA_19816_19973")_ - 1 x_("SEA_DAL_19410_19742",_"t")_ = 0
mp_c2_SEA_DEN_19533_19753_: 1 x_("BOI_SEA_18158_18240",_"SEA_DEN_19533_19753")_ + 1 x_("BOS_SEA_18621_18803",_"SEA_DEN_19533_19753")_ + 1 x_("BNA_SEA_19135_19352",_"SEA_DEN_19533_19753")_ + 1 x_("TUS_SEA_19192_19345",_"SEA_DEN_19533_19753")_ + 1 x_("SNA_SEA_19300_19472",_"SEA_DEN_19533_19753")_ - 1 x_("SEA_DEN_19533_19753",_"DEN_SEA_19812_19934")_ - 1 x_("SEA_DEN_19533_19753",_"t")_ = 0
mp_c2_BUR_PDX_19570_19722_: 1 x_("PDX_BUR_19379_19517",_"BUR_PDX_19570_19722")_ - 1 x_("BUR_PDX_19570_19722",_"PDX_SNA_19778_19909")_ - 1 x_("BUR_PDX_19570_19722",_"t")_ = 0
mp_c2_SEA_BUR_19612_19742_: 1 x_("BOI_SEA_18158_18240",_"SEA_BUR_19612_19742")_ + 1 x_("BOS_SEA_18621_18803",_"SEA_BUR_19612_19742")_ + 1 x_("BNA_SEA_19135_19352",_"SEA_BUR_19612_19742")_ + 1 x_("TUS_SEA_19192_19345",_"SEA_BUR_19612_19742")_ + 1 x_("SNA_SEA_19300_19472",_"SEA_BUR_19612_19742")_ + 1 x_("SAN_SEA_19361_19548",_"SEA_BUR_19612_19742")_ - 1 x_("SEA_BUR_19612_19742",_"BUR_SEA_19808_19983")_ - 1 x_("SEA_BUR_19612_19742",_"t")_ = 0
mp_c2_TUS_SEA_19702_19837_: 1 x_("SEA_TUS_18139_18362",_"TUS_SEA_19702_19837")_ + 1 x_("SEA_TUS_19409_19642",_"TUS_SEA_19702_19837")_ - 1 x_("TUS_SEA_19702_19837",_"SEA_RDM_19919_19997")_ - 1 x_("TUS_SEA_19702_19837",_"SEA_ANC_19993_20169")_ - 1 x_("TUS_SEA_19702_19837",_"t")_ = 0
mp_c2_PDX_SNA_19778_19909_: 1 x_("PHX_PDX_18386_18502",_"PDX_SNA_19778_19909")_ + 1 x_("BUR_PDX_19570_19722",_"PDX_SNA_19778_19909")_ - 1 x_("PDX_SNA_19778_19909",_"SNA_PDX_19948_20103")_ - 1 x_("PDX_SNA_19778_19909",_"t")_ = 0
mp_c2_BUR_SEA_19808_19983_: 1 x_("PDX_BUR_19379_19517",_"BUR_SEA_19808_19983")_ + 1 x_("SEA_BUR_19612_19742",_"BUR_SEA_19808_19983")_ - 1 x_("BUR_SEA_19808_19983",_"t")_ = 0
mp_c2_DEN_SEA_19812_19934_: 1 x_("SEA_DEN_19533_19753",_"DEN_SEA_19812_19934")_ - 1 x_("DEN_SEA_19812_19934",_"SEA_ANC_19993_20169")_ - 1 x_("DEN_SEA_19812_19934",_"t")_ = 0
mp_c2_DAL_SEA_19816_19973_: 1 x_("SEA_DAL_19410_19742",_"DAL_SEA_19816_19973")_ - 1 x_("DAL_SEA_19816_19973",_"t")_ = 0
mp_c2_SEA_RDM_19919_19997_: 1 x_("BOS_SEA_18621_18803",_"SEA_RDM_19919_19997")_ + 1 x_("BNA_SEA_19135_19352",_"SEA_RDM_19919_19997")_ + 1 x_("TUS_SEA_19192_19345",_"SEA_RDM_19919_19997")_ + 1 x_("SNA_SEA_19300_19472",_"SEA_RDM_19919_19997")_ + 1 x_("SAN_SEA_19361_19548",_"SEA_RDM_19919_19997")_ + 1 x_("TUS_SEA_19702_19837",_"SEA_RDM_19919_19997")_ - 1 x_("SEA_RDM_19919_19997",_"t")_ = 0
mp_c2_SNA_PDX_19948_20103_: 1 x_("SEA_SNA_19091_19255",_"SNA_PDX_19948_20103")_ + 1 x_("PDX_SNA_19778_19909",_"SNA_PDX_19948_20103")_ - 1 x_("SNA_PDX_19948_20103",_"t")_ = 0
mp_c2_SEA_ANC_19993_20169_: 1 x_("BOS_SEA_18621_18803",_"SEA_ANC_19993_20169")_ + 1 x_("BNA_SEA_19135_19352",_"SEA_ANC_19993_20169")_ + 1 x_("TUS_SEA_19192_19345",_"SEA_ANC_19993_20169")_ + 1 x_("SNA_SEA_19300_19472",_"SEA_ANC_19993_20169")_ + 1 x_("SAN_SEA_19361_19548",_"SEA_ANC_19993_20169")_ + 1 x_("TUS_SEA_19702_19837",_"SEA_ANC_19993_20169")_ + 1 x_("DEN_SEA_19812_19934",_"SEA_ANC_19993_20169")_ - 1 x_("SEA_ANC_19993_20169",_"t")_ = 0
mp_c5_SEA_GEG_16768_16829,N548AS_: 1 y_SEA_GEG_16768_16829,N548AS_ = 0
mp_c5_SEA_TPA_13536_14022,N548AS_: 1 y_SEA_TPA_13536_14022,N548AS_ = 0
mp_c5_SEA_PSP_16272_16438,N548AS_: 1 y_SEA_PSP_16272_16438,N548AS_ = 0
mp_c5_SEA_PSP_17701_17847,N548AS_: 1 y_SEA_PSP_17701_17847,N548AS_ = 0
mp_c5_SEA_SMF_13599_13694,N548AS_: 1 y_SEA_SMF_13599_13694,N548AS_ = 0
mp_c5_SEA_RDM_12197_12256,N548AS_: 1 y_SEA_RDM_12197_12256,N548AS_ = 0
mp_c5_SEA_SNA_15482_15629,N548AS_: 1 y_SEA_SNA_15482_15629,N548AS_ = 0
mp_c5_SEA_BOS_12457_12959,N548AS_: 1 y_SEA_BOS_12457_12959,N548AS_ = 0
mp_c5_SEA_PHX_12739_12962,N548AS_: 1 y_SEA_PHX_12739_12962,N548AS_ = 0
mp_c5_SEA_RDM_19919_19997,N548AS_: 1 y_SEA_RDM_19919_19997,N548AS_ = 0
mp_c5_SEA_BUR_19612_19742,N548AS_: 1 y_SEA_BUR_19612_19742,N548AS_ = 0
mp_c5_SEA_SNA_19091_19255,N548AS_: 1 y_SEA_SNA_19091_19255,N548AS_ = 0
mp_c5_SEA_ABQ_16745_16951,N548AS_: 1 y_SEA_ABQ_16745_16951,N548AS_ = 0
mp_c5_SEA_DEN_19533_19753,N548AS_: 1 y_SEA_DEN_19533_19753,N548AS_ = 0
mp_c5_PDX_AUS_16552_16890,N548AS_: 1 y_PDX_AUS_16552_16890,N548AS_ = 0
mp_c5_SEA_FAI_14896_15115,N548AS_: 1 y_SEA_FAI_14896_15115,N548AS_ = 0
mp_c5_SEA_MSY_14351_14725,N548AS_: 1 y_SEA_MSY_14351_14725,N548AS_ = 0
mp_c5_SEA_DEN_17042_17244,N548AS_: 1 y_SEA_DEN_17042_17244,N548AS_ = 0
mp_c5_SEA_LAS_12090_12244,N548AS_: 1 y_SEA_LAS_12090_12244,N548AS_ = 0
mp_c5_SEA_SAN_19141_19296,N548AS_: 1 y_SEA_SAN_19141_19296,N548AS_ = 0
mp_c5_SEA_BZN_15162_15306,N548AS_: 1 y_SEA_BZN_15162_15306,N548AS_ = 0
mp_c5_SEA_BNA_18036_18399,N548AS_: 1 y_SEA_BNA_18036_18399,N548AS_ = 0
mp_c5_SEA_AUS_14856_15227,N548AS_: 1 y_SEA_AUS_14856_15227,N548AS_ = 0
mp_c5_SEA_SNA_16942_17083,N548AS_: 1 y_SEA_SNA_16942_17083,N548AS_ = 0
mp_c5_PDX_BUR_19379_19517,N548AS_: 1 y_PDX_BUR_19379_19517,N548AS_ = 0
mp_c5_SEA_PHX_12265_12485,N548AS_: 1 y_SEA_PHX_12265_12485,N548AS_ = 0
mp_c5_SEA_PHX_18088_18307,N548AS_: 1 y_SEA_PHX_18088_18307,N548AS_ = 0
mp_c5_SEA_SNA_16306_16484,N548AS_: 1 y_SEA_SNA_16306_16484,N548AS_ = 0
mp_c5_SEA_LAS_12573_12699,N548AS_: 1 y_SEA_LAS_12573_12699,N548AS_ = 0
mp_c5_SEA_BOS_18088_18571,N548AS_: 1 y_SEA_BOS_18088_18571,N548AS_ = 0
mp_c5_SEA_JNU_14137_14272,N548AS_: 1 y_SEA_JNU_14137_14272,N548AS_ = 0
mp_c5_SEA_BOI_16599_16734,N548AS_: 1 y_SEA_BOI_16599_16734,N548AS_ = 0
mp_c5_SEA_GEG_13644_13713,N548AS_: 1 y_SEA_GEG_13644_13713,N548AS_ = 0
mp_c5_SEA_FAI_11156_11321,N548AS_: 1 y_SEA_FAI_11156_11321,N548AS_ = 0
mp_c5_SEA_BZN_16600_16757,N548AS_: 1 y_SEA_BZN_16600_16757,N548AS_ = 0
mp_c5_SEA_MSY_15060_15437,N548AS_: 1 y_SEA_MSY_15060_15437,N548AS_ = 0
mp_c5_SEA_ANC_19993_20169,N548AS_: 1 y_SEA_ANC_19993_20169,N548AS_ = 0
mp_c5_SEA_MSP_14135_14466,N548AS_: 1 y_SEA_MSP_14135_14466,N548AS_ = 0
mp_c5_SEA_AUS_11448_11783,N548AS_: 1 y_SEA_AUS_11448_11783,N548AS_ = 0
mp_c5_SEA_ORD_15012_15365,N548AS_: 1 y_SEA_ORD_15012_15365,N548AS_ = 0
mp_c5_SEA_DAL_19410_19742,N548AS_: 1 y_SEA_DAL_19410_19742,N548AS_ = 0
mp_c5_SEA_BOI_17952_18088,N548AS_: 1 y_SEA_BOI_17952_18088,N548AS_ = 0
mp_c5_SNA_SEA_17817_17993,N548AS_: 1 y_SNA_SEA_17817_17993,N548AS_ = 0
mp_c5_SEA_TUS_15472_15686,N548AS_: 1 y_SEA_TUS_15472_15686,N548AS_ = 0
mp_c5_SEA_TPA_17215_17682,N548AS_: 1 y_SEA_TPA_17215_17682,N548AS_ = 0
mp_c5_SEA_ANC_11214_11362,N548AS_: 1 y_SEA_ANC_11214_11362,N548AS_ = 0
mp_c5_TUS_SEA_19702_19837,N548AS_: 1 y_TUS_SEA_19702_19837,N548AS_ = 0
mp_c5_SEA_GEG_13889_13953,N548AS_: 1 y_SEA_GEG_13889_13953,N548AS_ = 0
mp_c5_SEA_SJC_13777_13892,N548AS_: 1 y_SEA_SJC_13777_13892,N548AS_ = 0
mp_c5_SEA_SNA_13947_14092,N548AS_: 1 y_SEA_SNA_13947_14092,N548AS_ = 0
mp_c5_SEA_TUS_18139_18362,N548AS_: 1 y_SEA_TUS_18139_18362,N548AS_ = 0
mp_c5_SEA_DEN_11299_11510,N548AS_: 1 y_SEA_DEN_11299_11510,N548AS_ = 0
mp_c5_PDX_SEA_14715_14768,N548AS_: 1 y_PDX_SEA_14715_14768,N548AS_ = 0
mp_c5_TUS_SEA_16376_16543,N548AS_: 1 y_TUS_SEA_16376_16543,N548AS_ = 0
mp_c5_SNA_PDX_19948_20103,N548AS_: 1 y_SNA_PDX_19948_20103,N548AS_ = 0
mp_c5_PDX_SNA_19778_19909,N548AS_: 1 y_PDX_SNA_19778_19909,N548AS_ = 0
mp_c5_SEA_TUS_19409_19642,N548AS_: 1 y_SEA_TUS_19409_19642,N548AS_ = 0
mp_c5_PDX_LAS_11263_11390,N548AS_: 1 y_PDX_LAS_11263_11390,N548AS_ = 0
mp_c5_SEA_ATL_16907_17347,N548AS_: 1 y_SEA_ATL_16907_17347,N548AS_ = 0
mp_c5_SEA_TUS_12542_12765,N548AS_: 1 y_SEA_TUS_12542_12765,N548AS_ = 0
mp_c5_SNA_SEA_16357_16540,N548AS_: 1 y_SNA_SEA_16357_16540,N548AS_ = 0
mp_c5_LAS_LAX_12746_12823,N548AS_: 1 y_LAS_LAX_12746_12823,N548AS_ = 0
mp_c5_SEA_MSP_12603_12910,N548AS_: 1 y_SEA_MSP_12603_12910,N548AS_ = 0
mp_c5_SNA_SEA_16531_16707,N548AS_: 1 y_SNA_SEA_16531_16707,N548AS_ = 0
mp_c5_TUS_SEA_19192_19345,N548AS_: 1 y_TUS_SEA_19192_19345,N548AS_ = 0
mp_c5_LAS_SEA_12302_12476,N548AS_: 1 y_LAS_SEA_12302_12476,N548AS_ = 0
mp_c5_TUS_SEA_13560_13715,N548AS_: 1 y_TUS_SEA_13560_13715,N548AS_ = 0
mp_c5_LAS_SEA_12242_12410,N548AS_: 1 y_LAS_SEA_12242_12410,N548AS_ = 0
mp_c5_SEA_GEG_16768_16829,N303AS_: 1 y_SEA_GEG_16768_16829,N303AS_ = 0
mp_c5_SEA_TPA_13536_14022,N303AS_: 1 y_SEA_TPA_13536_14022,N303AS_ = 0
mp_c5_SEA_PSP_16272_16438,N303AS_: 1 y_SEA_PSP_16272_16438,N303AS_ = 0
mp_c5_SEA_PSP_17701_17847,N303AS_: 1 y_SEA_PSP_17701_17847,N303AS_ = 0
mp_c5_SEA_SMF_13599_13694,N303AS_: 1 y_SEA_SMF_13599_13694,N303AS_ = 0
mp_c5_SEA_RDM_12197_12256,N303AS_: 1 y_SEA_RDM_12197_12256,N303AS_ = 0
mp_c5_SEA_SNA_15482_15629,N303AS_: 1 y_SEA_SNA_15482_15629,N303AS_ = 0
mp_c5_SEA_BOS_12457_12959,N303AS_: 1 y_SEA_BOS_12457_12959,N303AS_ = 0
mp_c5_SEA_PHX_12739_12962,N303AS_: 1 y_SEA_PHX_12739_12962,N303AS_ = 0
mp_c5_SEA_RDM_19919_19997,N303AS_: 1 y_SEA_RDM_19919_19997,N303AS_ = 0
mp_c5_SEA_BUR_19612_19742,N303AS_: 1 y_SEA_BUR_19612_19742,N303AS_ = 0
mp_c5_SEA_SNA_19091_19255,N303AS_: 1 y_SEA_SNA_19091_19255,N303AS_ = 0
mp_c5_SEA_ABQ_16745_16951,N303AS_: 1 y_SEA_ABQ_16745_16951,N303AS_ = 0
mp_c5_SEA_DEN_19533_19753,N303AS_: 1 y_SEA_DEN_19533_19753,N303AS_ = 0
mp_c5_PDX_AUS_16552_16890,N303AS_: 1 y_PDX_AUS_16552_16890,N303AS_ = 0
mp_c5_SEA_FAI_14896_15115,N303AS_: 1 y_SEA_FAI_14896_15115,N303AS_ = 0
mp_c5_SEA_MSY_14351_14725,N303AS_: 1 y_SEA_MSY_14351_14725,N303AS_ = 0
mp_c5_SEA_DEN_17042_17244,N303AS_: 1 y_SEA_DEN_17042_17244,N303AS_ = 0
mp_c5_SEA_LAS_12090_12244,N303AS_: 1 y_SEA_LAS_12090_12244,N303AS_ = 0
mp_c5_SEA_SAN_19141_19296,N303AS_: 1 y_SEA_SAN_19141_19296,N303AS_ = 0
mp_c5_SEA_BZN_15162_15306,N303AS_: 1 y_SEA_BZN_15162_15306,N303AS_ = 0
mp_c5_SEA_BNA_18036_18399,N303AS_: 1 y_SEA_BNA_18036_18399,N303AS_ = 0
mp_c5_SEA_AUS_14856_15227,N303AS_: 1 y_SEA_AUS_14856_15227,N303AS_ = 0
mp_c5_SEA_SNA_16942_17083,N303AS_: 1 y_SEA_SNA_16942_17083,N303AS_ = 0
mp_c5_PDX_BUR_19379_19517,N303AS_: 1 y_PDX_BUR_19379_19517,N303AS_ = 0
mp_c5_SEA_PHX_12265_12485,N303AS_: 1 y_SEA_PHX_12265_12485,N303AS_ = 0
mp_c5_SEA_PHX_18088_18307,N303AS_: 1 y_SEA_PHX_18088_18307,N303AS_ = 0
mp_c5_SEA_SNA_16306_16484,N303AS_: 1 y_SEA_SNA_16306_16484,N303AS_ = 0
mp_c5_SEA_LAS_12573_12699,N303AS_: 1 y_SEA_LAS_12573_12699,N303AS_ = 0
mp_c5_SEA_BOS_18088_18571,N303AS_: 1 y_SEA_BOS_18088_18571,N303AS_ = 0
mp_c5_SEA_JNU_14137_14272,N303AS_: 1 y_SEA_JNU_14137_14272,N303AS_ = 0
mp_c5_SEA_BOI_16599_16734,N303AS_: 1 y_SEA_BOI_16599_16734,N303AS_ = 0
mp_c5_SEA_GEG_13644_13713,N303AS_: 1 y_SEA_GEG_13644_13713,N303AS_ = 0
mp_c5_SEA_FAI_11156_11321,N303AS_: 1 y_SEA_FAI_11156_11321,N303AS_ = 0
mp_c5_SEA_BZN_16600_16757,N303AS_: 1 y_SEA_BZN_16600_16757,N303AS_ = 0
mp_c5_SEA_MSY_15060_15437,N303AS_: 1 y_SEA_MSY_15060_15437,N303AS_ = 0
mp_c5_SEA_ANC_19993_20169,N303AS_: 1 y_SEA_ANC_19993_20169,N303AS_ = 0
mp_c5_SEA_MSP_14135_14466,N303AS_: 1 y_SEA_MSP_14135_14466,N303AS_ = 0
mp_c5_SEA_AUS_11448_11783,N303AS_: 1 y_SEA_AUS_11448_11783,N303AS_ = 0
mp_c5_SEA_ORD_15012_15365,N303AS_: 1 y_SEA_ORD_15012_15365,N303AS_ = 0
mp_c5_SEA_DAL_19410_19742,N303AS_: 1 y_SEA_DAL_19410_19742,N303AS_ = 0
mp_c5_SEA_BOI_17952_18088,N303AS_: 1 y_SEA_BOI_17952_18088,N303AS_ = 0
mp_c5_SNA_SEA_17817_17993,N303AS_: 1 y_SNA_SEA_17817_17993,N303AS_ = 0
mp_c5_SEA_TUS_15472_15686,N303AS_: 1 y_SEA_TUS_15472_15686,N303AS_ = 0
mp_c5_SEA_TPA_17215_17682,N303AS_: 1 y_SEA_TPA_17215_17682,N303AS_ = 0
mp_c5_SEA_ANC_11214_11362,N303AS_: 1 y_SEA_ANC_11214_11362,N303AS_ = 0
mp_c5_TUS_SEA_19702_19837,N303AS_: 1 y_TUS_SEA_19702_19837,N303AS_ = 0
mp_c5_SEA_GEG_13889_13953,N303AS_: 1 y_SEA_GEG_13889_13953,N303AS_ = 0
mp_c5_SEA_SJC_13777_13892,N303AS_: 1 y_SEA_SJC_13777_13892,N303AS_ = 0
mp_c5_SEA_SNA_13947_14092,N303AS_: 1 y_SEA_SNA_13947_14092,N303AS_ = 0
mp_c5_SEA_TUS_18139_18362,N303AS_: 1 y_SEA_TUS_18139_18362,N303AS_ = 0
mp_c5_SEA_DEN_11299_11510,N303AS_: 1 y_SEA_DEN_11299_11510,N303AS_ = 0
mp_c5_PDX_SEA_14715_14768,N303AS_: 1 y_PDX_SEA_14715_14768,N303AS_ = 0
mp_c5_TUS_SEA_16376_16543,N303AS_: 1 y_TUS_SEA_16376_16543,N303AS_ = 0
mp_c5_SNA_PDX_19948_20103,N303AS_: 1 y_SNA_PDX_19948_20103,N303AS_ = 0
mp_c5_PDX_SNA_19778_19909,N303AS_: 1 y_PDX_SNA_19778_19909,N303AS_ = 0
mp_c5_SEA_TUS_19409_19642,N303AS_: 1 y_SEA_TUS_19409_19642,N303AS_ = 0
mp_c5_PDX_LAS_11263_11390,N303AS_: 1 y_PDX_LAS_11263_11390,N303AS_ = 0
mp_c5_SEA_ATL_16907_17347,N303AS_: 1 y_SEA_ATL_16907_17347,N303AS_ = 0
mp_c5_SEA_TUS_12542_12765,N303AS_: 1 y_SEA_TUS_12542_12765,N303AS_ = 0
mp_c5_SNA_SEA_16357_16540,N303AS_: 1 y_SNA_SEA_16357_16540,N303AS_ = 0
mp_c5_LAS_LAX_12746_12823,N303AS_: 1 y_LAS_LAX_12746_12823,N303AS_ = 0
mp_c5_SEA_MSP_12603_12910,N303AS_: 1 y_SEA_MSP_12603_12910,N303AS_ = 0
mp_c5_SNA_SEA_16531_16707,N303AS_: 1 y_SNA_SEA_16531_16707,N303AS_ = 0
mp_c5_TUS_SEA_19192_19345,N303AS_: 1 y_TUS_SEA_19192_19345,N303AS_ = 0
mp_c5_LAS_SEA_12302_12476,N303AS_: 1 y_LAS_SEA_12302_12476,N303AS_ = 0
mp_c5_TUS_SEA_13560_13715,N303AS_: 1 y_TUS_SEA_13560_13715,N303AS_ = 0
mp_c5_LAS_SEA_12242_12410,N303AS_: 1 y_LAS_SEA_12242_12410,N303AS_ = 0
mp_c5_SEA_GEG_16768_16829,N556AS_: 1 y_SEA_GEG_16768_16829,N556AS_ = 0
mp_c5_SEA_TPA_13536_14022,N556AS_: 1 y_SEA_TPA_13536_14022,N556AS_ = 0
mp_c5_SEA_PSP_16272_16438,N556AS_: 1 y_SEA_PSP_16272_16438,N556AS_ = 0
mp_c5_SEA_PSP_17701_17847,N556AS_: 1 y_SEA_PSP_17701_17847,N556AS_ = 0
mp_c5_SEA_SMF_13599_13694,N556AS_: 1 y_SEA_SMF_13599_13694,N556AS_ = 0
mp_c5_SEA_RDM_12197_12256,N556AS_: 1 y_SEA_RDM_12197_12256,N556AS_ = 0
mp_c5_SEA_SNA_15482_15629,N556AS_: 1 y_SEA_SNA_15482_15629,N556AS_ = 0
mp_c5_SEA_BOS_12457_12959,N556AS_: 1 y_SEA_BOS_12457_12959,N556AS_ = 0
mp_c5_SEA_PHX_12739_12962,N556AS_: 1 y_SEA_PHX_12739_12962,N556AS_ = 0
mp_c5_SEA_RDM_19919_19997,N556AS_: 1 y_SEA_RDM_19919_19997,N556AS_ = 0
mp_c5_SEA_BUR_19612_19742,N556AS_: 1 y_SEA_BUR_19612_19742,N556AS_ = 0
mp_c5_SEA_SNA_19091_19255,N556AS_: 1 y_SEA_SNA_19091_19255,N556AS_ = 0
mp_c5_SEA_ABQ_16745_16951,N556AS_: 1 y_SEA_ABQ_16745_16951,N556AS_ = 0
mp_c5_SEA_DEN_19533_19753,N556AS_: 1 y_SEA_DEN_19533_19753,N556AS_ = 0
mp_c5_PDX_AUS_16552_16890,N556AS_: 1 y_PDX_AUS_16552_16890,N556AS_ = 0
mp_c5_SEA_FAI_14896_15115,N556AS_: 1 y_SEA_FAI_14896_15115,N556AS_ = 0
mp_c5_SEA_MSY_14351_14725,N556AS_: 1 y_SEA_MSY_14351_14725,N556AS_ = 0
mp_c5_SEA_DEN_17042_17244,N556AS_: 1 y_SEA_DEN_17042_17244,N556AS_ = 0
mp_c5_SEA_LAS_12090_12244,N556AS_: 1 y_SEA_LAS_12090_12244,N556AS_ = 0
mp_c5_SEA_SAN_19141_19296,N556AS_: 1 y_SEA_SAN_19141_19296,N556AS_ = 0
mp_c5_SEA_BZN_15162_15306,N556AS_: 1 y_SEA_BZN_15162_15306,N556AS_ = 0
mp_c5_SEA_BNA_18036_18399,N556AS_: 1 y_SEA_BNA_18036_18399,N556AS_ = 0
mp_c5_SEA_AUS_14856_15227,N556AS_: 1 y_SEA_AUS_14856_15227,N556AS_ = 0
mp_c5_SEA_SNA_16942_17083,N556AS_: 1 y_SEA_SNA_16942_17083,N556AS_ = 0
mp_c5_PDX_BUR_19379_19517,N556AS_: 1 y_PDX_BUR_19379_19517,N556AS_ = 0
mp_c5_SEA_PHX_12265_12485,N556AS_: 1 y_SEA_PHX_12265_12485,N556AS_ = 0
mp_c5_SEA_PHX_18088_18307,N556AS_: 1 y_SEA_PHX_18088_18307,N556AS_ = 0
mp_c5_SEA_SNA_16306_16484,N556AS_: 1 y_SEA_SNA_16306_16484,N556AS_ = 0
mp_c5_SEA_LAS_12573_12699,N556AS_: 1 y_SEA_LAS_12573_12699,N556AS_ = 0
mp_c5_SEA_BOS_18088_18571,N556AS_: 1 y_SEA_BOS_18088_18571,N556AS_ = 0
mp_c5_SEA_JNU_14137_14272,N556AS_: 1 y_SEA_JNU_14137_14272,N556AS_ = 0
mp_c5_SEA_BOI_16599_16734,N556AS_: 1 y_SEA_BOI_16599_16734,N556AS_ = 0
mp_c5_SEA_GEG_13644_13713,N556AS_: 1 y_SEA_GEG_13644_13713,N556AS_ = 0
mp_c5_SEA_FAI_11156_11321,N556AS_: 1 y_SEA_FAI_11156_11321,N556AS_ = 0
mp_c5_SEA_BZN_16600_16757,N556AS_: 1 y_SEA_BZN_16600_16757,N556AS_ = 0
mp_c5_SEA_MSY_15060_15437,N556AS_: 1 y_SEA_MSY_15060_15437,N556AS_ = 0
mp_c5_SEA_ANC_19993_20169,N556AS_: 1 y_SEA_ANC_19993_20169,N556AS_ = 0
mp_c5_SEA_MSP_14135_14466,N556AS_: 1 y_SEA_MSP_14135_14466,N556AS_ = 0
mp_c5_SEA_AUS_11448_11783,N556AS_: 1 y_SEA_AUS_11448_11783,N556AS_ = 0
mp_c5_SEA_ORD_15012_15365,N556AS_: 1 y_SEA_ORD_15012_15365,N556AS_ = 0
mp_c5_SEA_DAL_19410_19742,N556AS_: 1 y_SEA_DAL_19410_19742,N556AS_ = 0
mp_c5_SEA_BOI_17952_18088,N556AS_: 1 y_SEA_BOI_17952_18088,N556AS_ = 0
mp_c5_SNA_SEA_17817_17993,N556AS_: 1 y_SNA_SEA_17817_17993,N556AS_ = 0
mp_c5_SEA_TUS_15472_15686,N556AS_: 1 y_SEA_TUS_15472_15686,N556AS_ = 0
mp_c5_SEA_TPA_17215_17682,N556AS_: 1 y_SEA_TPA_17215_17682,N556AS_ = 0
mp_c5_SEA_ANC_11214_11362,N556AS_: 1 y_SEA_ANC_11214_11362,N556AS_ = 0
mp_c5_TUS_SEA_19702_19837,N556AS_: 1 y_TUS_SEA_19702_19837,N556AS_ = 0
mp_c5_SEA_GEG_13889_13953,N556AS_: 1 y_SEA_GEG_13889_13953,N556AS_ = 0
mp_c5_SEA_SJC_13777_13892,N556AS_: 1 y_SEA_SJC_13777_13892,N556AS_ = 0
mp_c5_SEA_SNA_13947_14092,N556AS_: 1 y_SEA_SNA_13947_14092,N556AS_ = 0
mp_c5_SEA_TUS_18139_18362,N556AS_: 1 y_SEA_TUS_18139_18362,N556AS_ = 0
mp_c5_SEA_DEN_11299_11510,N556AS_: 1 y_SEA_DEN_11299_11510,N556AS_ = 0
mp_c5_PDX_SEA_14715_14768,N556AS_: 1 y_PDX_SEA_14715_14768,N556AS_ = 0
mp_c5_TUS_SEA_16376_16543,N556AS_: 1 y_TUS_SEA_16376_16543,N556AS_ = 0
mp_c5_SNA_PDX_19948_20103,N556AS_: 1 y_SNA_PDX_19948_20103,N556AS_ = 0
mp_c5_PDX_SNA_19778_19909,N556AS_: 1 y_PDX_SNA_19778_19909,N556AS_ = 0
mp_c5_SEA_TUS_19409_19642,N556AS_: 1 y_SEA_TUS_19409_19642,N556AS_ = 0
mp_c5_PDX_LAS_11263_11390,N556AS_: 1 y_PDX_LAS_11263_11390,N556AS_ = 0
mp_c5_SEA_ATL_16907_17347,N556AS_: 1 y_SEA_ATL_16907_17347,N556AS_ = 0
mp_c5_SEA_TUS_12542_12765,N556AS_: 1 y_SEA_TUS_12542_12765,N556AS_ = 0
mp_c5_SNA_SEA_16357_16540,N556AS_: 1 y_SNA_SEA_16357_16540,N556AS_ = 0
mp_c5_LAS_LAX_12746_12823,N556AS_: 1 y_LAS_LAX_12746_12823,N556AS_ = 0
mp_c5_SEA_MSP_12603_12910,N556AS_: 1 y_SEA_MSP_12603_12910,N556AS_ = 0
mp_c5_SNA_SEA_16531_16707,N556AS_: 1 y_SNA_SEA_16531_16707,N556AS_ = 0
mp_c5_TUS_SEA_19192_19345,N556AS_: 1 y_TUS_SEA_19192_19345,N556AS_ = 0
mp_c5_LAS_SEA_12302_12476,N556AS_: 1 y_LAS_SEA_12302_12476,N556AS_ = 0
mp_c5_TUS_SEA_13560_13715,N556AS_: 1 y_TUS_SEA_13560_13715,N556AS_ = 0
mp_c5_LAS_SEA_12242_12410,N556AS_: 1 y_LAS_SEA_12242_12410,N556AS_ = 0
Bounds
Z >= 0
Binary
x_("s",_"N435AS")_
x_("s",_"N548AS")_
x_("s",_"N303AS")_
x_("s",_"N553AS")_
x_("s",_"N556AS")_
x_("N553AS",_"BUR_PDX_10515_10681")_
x_("N548AS",_"SEA_MKE_10527_10867")_
x_("N303AS",_"SEA_MKE_10527_10867")_
x_("N548AS",_"SEA_DFW_10534_10880")_
x_("N303AS",_"SEA_DFW_10534_10880")_
x_("N556AS",_"MCO_SEA_10685_10895")_
x_("N435AS",_"PDX_SNA_10733_10856")_
x_("N548AS",_"SEA_SBA_10975_11105")_
x_("N303AS",_"SEA_SBA_10975_11105")_
x_("N548AS",_"SEA_FAI_11156_11321")_
x_("N303AS",_"SEA_FAI_11156_11321")_
x_("N548AS",_"SEA_ANC_11214_11362")_
x_("N303AS",_"SEA_ANC_11214_11362")_
x_("N435AS",_"PDX_LAS_11263_11390")_
x_("N548AS",_"SEA_DEN_11299_11510")_
x_("N303AS",_"SEA_DEN_11299_11510")_
x_("N548AS",_"SEA_AUS_11448_11783")_
x_("N303AS",_"SEA_AUS_11448_11783")_
x_("BUR_PDX_10515_10681",_"PDX_SNA_10733_10856")_
x_("BUR_PDX_10515_10681",_"PDX_LAS_11263_11390")_
x_("SEA_MKE_10527_10867",_"MKE_SEA_10939_11077")_
x_("SEA_DFW_10534_10880",_"DFW_SEA_10940_11090")_
x_("MCO_SEA_10685_10895",_"SEA_DEN_11299_11510")_
x_("MCO_SEA_10685_10895",_"SEA_ANC_11214_11362")_
x_("MCO_SEA_10685_10895",_"SEA_FAI_11156_11321")_
x_("MCO_SEA_10685_10895",_"SEA_PHX_12265_12485")_
x_("MCO_SEA_10685_10895",_"SEA_AUS_11448_11783")_
x_("MCO_SEA_10685_10895",_"SEA_SBA_10975_11105")_
x_("MCO_SEA_10685_10895",_"SEA_LAS_12090_12244")_
x_("MCO_SEA_10685_10895",_"SEA_RDM_12197_12256")_
x_("PDX_SNA_10733_10856",_"SNA_SEA_10924_11134")_
x_("SNA_SEA_10924_11134",_"SEA_LAS_12573_12699")_
x_("SNA_SEA_10924_11134",_"SEA_DEN_11299_11510")_
x_("SNA_SEA_10924_11134",_"SEA_ANC_11214_11362")_
x_("SNA_SEA_10924_11134",_"SEA_PHX_12265_12485")_
x_("SNA_SEA_10924_11134",_"SEA_TUS_12542_12765")_
x_("SNA_SEA_10924_11134",_"SEA_AUS_11448_11783")_
x_("SNA_SEA_10924_11134",_"SEA_BOS_12457_12959")_
x_("SNA_SEA_10924_11134",_"SEA_LAS_12090_12244")_
x_("SNA_SEA_10924_11134",_"SEA_RDM_12197_12256")_
x_("MKE_SEA_10939_11077",_"SEA_DEN_11299_11510")_
x_("MKE_SEA_10939_11077",_"SEA_ANC_11214_11362")_
x_("MKE_SEA_10939_11077",_"SEA_FAI_11156_11321")_
x_("MKE_SEA_10939_11077",_"SEA_PHX_12265_12485")_
x_("MKE_SEA_10939_11077",_"SEA_AUS_11448_11783")_
x_("MKE_SEA_10939_11077",_"SEA_BOS_12457_12959")_
x_("MKE_SEA_10939_11077",_"SEA_LAS_12090_12244")_
x_("MKE_SEA_10939_11077",_"SEA_RDM_12197_12256")_
x_("DFW_SEA_10940_11090",_"SEA_DEN_11299_11510")_
x_("DFW_SEA_10940_11090",_"SEA_ANC_11214_11362")_
x_("DFW_SEA_10940_11090",_"SEA_FAI_11156_11321")_
x_("DFW_SEA_10940_11090",_"SEA_PHX_12265_12485")_
x_("DFW_SEA_10940_11090",_"SEA_AUS_11448_11783")_
x_("DFW_SEA_10940_11090",_"SEA_BOS_12457_12959")_
x_("DFW_SEA_10940_11090",_"SEA_LAS_12090_12244")_
x_("DFW_SEA_10940_11090",_"SEA_RDM_12197_12256")_
x_("SEA_SBA_10975_11105",_"SBA_SEA_11142_11297")_
x_("SBA_SEA_11142_11297",_"SEA_LAS_12573_12699")_
x_("SBA_SEA_11142_11297",_"SEA_PHX_12265_12485")_
x_("SBA_SEA_11142_11297",_"SEA_TUS_12542_12765")_
x_("SBA_SEA_11142_11297",_"SEA_MSP_12603_12910")_
x_("SBA_SEA_11142_11297",_"SEA_AUS_11448_11783")_
x_("SBA_SEA_11142_11297",_"SEA_BOS_12457_12959")_
x_("SBA_SEA_11142_11297",_"SEA_LAS_12090_12244")_
x_("SBA_SEA_11142_11297",_"SEA_RDM_12197_12256")_
x_("SEA_FAI_11156_11321",_"FAI_SEA_11934_12211")_
x_("SEA_ANC_11214_11362",_"ANC_SEA_11872_12140")_
x_("PDX_LAS_11263_11390",_"LAS_LAX_12746_12823")_
x_("PDX_LAS_11263_11390",_"LAS_SEA_12302_12476")_
x_("PDX_LAS_11263_11390",_"LAS_SEA_12242_12410")_
x_("SEA_DEN_11299_11510",_"DEN_SEA_11899_12032")_
x_("SEA_AUS_11448_11783",_"AUS_SEA_12358_12531")_
x_("ANC_SEA_11872_12140",_"SEA_LAS_12573_12699")_
x_("ANC_SEA_11872_12140",_"SEA_TPA_13536_14022")_
x_("ANC_SEA_11872_12140",_"SEA_PHX_12265_12485")_
x_("ANC_SEA_11872_12140",_"SEA_TUS_12542_12765")_
x_("ANC_SEA_11872_12140",_"SEA_MSP_12603_12910")_
x_("ANC_SEA_11872_12140",_"SEA_BOS_12457_12959")_
x_("ANC_SEA_11872_12140",_"SEA_RDM_12197_12256")_
x_("ANC_SEA_11872_12140",_"SEA_PHX_12739_12962")_
x_("DEN_SEA_11899_12032",_"SEA_LAS_12573_12699")_
x_("DEN_SEA_11899_12032",_"SEA_PHX_12265_12485")_
x_("DEN_SEA_11899_12032",_"SEA_TUS_12542_12765")_
x_("DEN_SEA_11899_12032",_"SEA_MSP_12603_12910")_
x_("DEN_SEA_11899_12032",_"SEA_BOS_12457_12959")_
x_("DEN_SEA_11899_12032",_"SEA_LAS_12090_12244")_
x_("DEN_SEA_11899_12032",_"SEA_RDM_12197_12256")_
x_("DEN_SEA_11899_12032",_"SEA_PHX_12739_12962")_
x_("FAI_SEA_11934_12211",_"SEA_LAS_12573_12699")_
x_("FAI_SEA_11934_12211",_"SEA_TPA_13536_14022")_
x_("FAI_SEA_11934_12211",_"SEA_PHX_12265_12485")_
x_("FAI_SEA_11934_12211",_"SEA_TUS_12542_12765")_
x_("FAI_SEA_11934_12211",_"SEA_SMF_13599_13694")_
x_("FAI_SEA_11934_12211",_"SEA_MSP_12603_12910")_
x_("FAI_SEA_11934_12211",_"SEA_GEG_13644_13713")_
x_("FAI_SEA_11934_12211",_"SEA_BOS_12457_12959")_
x_("FAI_SEA_11934_12211",_"SEA_PHX_12739_12962")_
x_("SEA_LAS_12090_12244",_"LAS_LAX_12746_12823")_
x_("SEA_LAS_12090_12244",_"LAS_SEA_12302_12476")_
x_("SEA_RDM_12197_12256",_"RDM_SEA_12319_12399")_
x_("LAS_SEA_12242_12410",_"SEA_LAS_12573_12699")_
x_("LAS_SEA_12242_12410",_"SEA_TPA_13536_14022")_
x_("LAS_SEA_12242_12410",_"SEA_TUS_12542_12765")_
x_("LAS_SEA_12242_12410",_"SEA_SMF_13599_13694")_
x_("LAS_SEA_12242_12410",_"SEA_MSP_12603_12910")_
x_("LAS_SEA_12242_12410",_"SEA_GEG_13644_13713")_
x_("LAS_SEA_12242_12410",_"SEA_BOS_12457_12959")_
x_("LAS_SEA_12242_12410",_"SEA_SJC_13777_13892")_
x_("LAS_SEA_12242_12410",_"SEA_PHX_12739_12962")_
x_("SEA_PHX_12265_12485",_"PHX_SEA_13313_13468")_
x_("SEA_PHX_12265_12485",_"PHX_SEA_12540_12679")_
x_("LAS_SEA_12302_12476",_"SEA_LAS_12573_12699")_
x_("LAS_SEA_12302_12476",_"SEA_TPA_13536_14022")_
x_("LAS_SEA_12302_12476",_"SEA_TUS_12542_12765")_
x_("LAS_SEA_12302_12476",_"SEA_SMF_13599_13694")_
x_("LAS_SEA_12302_12476",_"SEA_MSP_12603_12910")_
x_("LAS_SEA_12302_12476",_"SEA_GEG_13889_13953")_
x_("LAS_SEA_12302_12476",_"SEA_GEG_13644_13713")_
x_("LAS_SEA_12302_12476",_"SEA_SJC_13777_13892")_
x_("LAS_SEA_12302_12476",_"SEA_PHX_12739_12962")_
x_("RDM_SEA_12319_12399",_"SEA_LAS_12573_12699")_
x_("RDM_SEA_12319_12399",_"SEA_TPA_13536_14022")_
x_("RDM_SEA_12319_12399",_"SEA_TUS_12542_12765")_
x_("RDM_SEA_12319_12399",_"SEA_SMF_13599_13694")_
x_("RDM_SEA_12319_12399",_"SEA_MSP_12603_12910")_
x_("RDM_SEA_12319_12399",_"SEA_GEG_13644_13713")_
x_("RDM_SEA_12319_12399",_"SEA_BOS_12457_12959")_
x_("RDM_SEA_12319_12399",_"SEA_SJC_13777_13892")_
x_("RDM_SEA_12319_12399",_"SEA_PHX_12739_12962")_
x_("AUS_SEA_12358_12531",_"SEA_LAS_12573_12699")_
x_("AUS_SEA_12358_12531",_"SEA_TPA_13536_14022")_
x_("AUS_SEA_12358_12531",_"SEA_SMF_13599_13694")_
x_("AUS_SEA_12358_12531",_"SEA_MSP_12603_12910")_
x_("AUS_SEA_12358_12531",_"SEA_SNA_13947_14092")_
x_("AUS_SEA_12358_12531",_"SEA_GEG_13889_13953")_
x_("AUS_SEA_12358_12531",_"SEA_GEG_13644_13713")_
x_("AUS_SEA_12358_12531",_"SEA_SJC_13777_13892")_
x_("AUS_SEA_12358_12531",_"SEA_PHX_12739_12962")_
x_("SEA_BOS_12457_12959",_"BOS_SEA_13423_13580")_
x_("PHX_SEA_12540_12679",_"SEA_TPA_13536_14022")_
x_("PHX_SEA_12540_12679",_"SEA_SMF_13599_13694")_
x_("PHX_SEA_12540_12679",_"SEA_SNA_13947_14092")_
x_("PHX_SEA_12540_12679",_"SEA_GEG_13889_13953")_
x_("PHX_SEA_12540_12679",_"SEA_GEG_13644_13713")_
x_("PHX_SEA_12540_12679",_"SEA_SJC_13777_13892")_
x_("PHX_SEA_12540_12679",_"SEA_PHX_12739_12962")_
x_("SEA_TUS_12542_12765",_"TUS_SEA_13560_13715")_
x_("SEA_LAS_12573_12699",_"LAS_LAX_12746_12823")_
x_("SEA_MSP_12603_12910",_"MSP_SEA_13375_13512")_
x_("SEA_PHX_12739_12962",_"PHX_SEA_13313_13468")_
x_("LAS_LAX_12746_12823",_"LAX_HNL_13385_13624")_
x_("PHX_SEA_13313_13468",_"SEA_TPA_13536_14022")_
x_("PHX_SEA_13313_13468",_"SEA_SMF_13599_13694")_
x_("PHX_SEA_13313_13468",_"SEA_MSP_14135_14466")_
x_("PHX_SEA_13313_13468",_"SEA_JNU_14137_14272")_
x_("PHX_SEA_13313_13468",_"SEA_SNA_13947_14092")_
x_("PHX_SEA_13313_13468",_"SEA_AUS_14856_15227")_
x_("PHX_SEA_13313_13468",_"SEA_GEG_13889_13953")_
x_("PHX_SEA_13313_13468",_"SEA_GEG_13644_13713")_
x_("PHX_SEA_13313_13468",_"SEA_MSY_14351_14725")_
x_("PHX_SEA_13313_13468",_"SEA_FAI_14896_15115")_
x_("PHX_SEA_13313_13468",_"SEA_SJC_13777_13892")_
x_("MSP_SEA_13375_13512",_"SEA_SMF_13599_13694")_
x_("MSP_SEA_13375_13512",_"SEA_MSP_14135_14466")_
x_("MSP_SEA_13375_13512",_"SEA_JNU_14137_14272")_
x_("MSP_SEA_13375_13512",_"SEA_SNA_13947_14092")_
x_("MSP_SEA_13375_13512",_"SEA_AUS_14856_15227")_
x_("MSP_SEA_13375_13512",_"SEA_GEG_13889_13953")_
x_("MSP_SEA_13375_13512",_"SEA_GEG_13644_13713")_
x_("MSP_SEA_13375_13512",_"SEA_MSY_14351_14725")_
x_("MSP_SEA_13375_13512",_"SEA_FAI_14896_15115")_
x_("MSP_SEA_13375_13512",_"SEA_SJC_13777_13892")_
x_("LAX_HNL_13385_13624",_"HNL_PDX_13699_14142")_
x_("BOS_SEA_13423_13580",_"SEA_MSP_14135_14466")_
x_("BOS_SEA_13423_13580",_"SEA_JNU_14137_14272")_
x_("BOS_SEA_13423_13580",_"SEA_SNA_13947_14092")_
x_("BOS_SEA_13423_13580",_"SEA_AUS_14856_15227")_
x_("BOS_SEA_13423_13580",_"SEA_ORD_15012_15365")_
x_("BOS_SEA_13423_13580",_"SEA_GEG_13889_13953")_
x_("BOS_SEA_13423_13580",_"SEA_GEG_13644_13713")_
x_("BOS_SEA_13423_13580",_"SEA_MSY_14351_14725")_
x_("BOS_SEA_13423_13580",_"SEA_FAI_14896_15115")_
x_("BOS_SEA_13423_13580",_"SEA_SJC_13777_13892")_
x_("SEA_TPA_13536_14022",_"TPA_SEA_14080_14280")_
x_("TUS_SEA_13560_13715",_"SEA_MSP_14135_14466")_
x_("TUS_SEA_13560_13715",_"SEA_JNU_14137_14272")_
x_("TUS_SEA_13560_13715",_"SEA_SNA_13947_14092")_
x_("TUS_SEA_13560_13715",_"SEA_MSY_15060_15437")_
x_("TUS_SEA_13560_13715",_"SEA_AUS_14856_15227")_
x_("TUS_SEA_13560_13715",_"SEA_ORD_15012_15365")_
x_("TUS_SEA_13560_13715",_"SEA_GEG_13889_13953")_
x_("TUS_SEA_13560_13715",_"SEA_MSY_14351_14725")_
x_("TUS_SEA_13560_13715",_"SEA_FAI_14896_15115")_
x_("TUS_SEA_13560_13715",_"SEA_SJC_13777_13892")_
x_("SEA_SMF_13599_13694",_"SMF_SEA_13740_13859")_
x_("SEA_GEG_13644_13713",_"GEG_SEA_14008_14081")_
x_("SEA_GEG_13644_13713",_"GEG_SEA_13772_13832")_
x_("HNL_PDX_13699_14142",_"PDX_SEA_14715_14768")_
x_("SMF_SEA_13740_13859",_"SEA_MSP_14135_14466")_
x_("SMF_SEA_13740_13859",_"SEA_JNU_14137_14272")_
x_("SMF_SEA_13740_13859",_"SEA_SNA_13947_14092")_
x_("SMF_SEA_13740_13859",_"SEA_MSY_15060_15437")_
x_("SMF_SEA_13740_13859",_"SEA_AUS_14856_15227")_
x_("SMF_SEA_13740_13859",_"SEA_ORD_15012_15365")_
x_("SMF_SEA_13740_13859",_"SEA_MSY_14351_14725")_
x_("SMF_SEA_13740_13859",_"SEA_FAI_14896_15115")_
x_("SMF_SEA_13740_13859",_"SEA_BZN_15162_15306")_
x_("GEG_SEA_13772_13832",_"SEA_MSP_14135_14466")_
x_("GEG_SEA_13772_13832",_"SEA_JNU_14137_14272")_
x_("GEG_SEA_13772_13832",_"SEA_SNA_13947_14092")_
x_("GEG_SEA_13772_13832",_"SEA_MSY_15060_15437")_
x_("GEG_SEA_13772_13832",_"SEA_AUS_14856_15227")_
x_("GEG_SEA_13772_13832",_"SEA_ORD_15012_15365")_
x_("GEG_SEA_13772_13832",_"SEA_GEG_13889_13953")_
x_("GEG_SEA_13772_13832",_"SEA_MSY_14351_14725")_
x_("GEG_SEA_13772_13832",_"SEA_FAI_14896_15115")_
x_("GEG_SEA_13772_13832",_"SEA_BZN_15162_15306")_
x_("SEA_SJC_13777_13892",_"SJC_SEA_13949_14086")_
x_("SEA_GEG_13889_13953",_"GEG_SEA_14008_14081")_
x_("SEA_SNA_13947_14092",_"SNA_SEA_14146_14321")_
x_("SJC_SEA_13949_14086",_"SEA_TUS_15472_15686")_
x_("SJC_SEA_13949_14086",_"SEA_SNA_15482_15629")_
x_("SJC_SEA_13949_14086",_"SEA_MSP_14135_14466")_
x_("SJC_SEA_13949_14086",_"SEA_JNU_14137_14272")_
x_("SJC_SEA_13949_14086",_"SEA_MSY_15060_15437")_
x_("SJC_SEA_13949_14086",_"SEA_AUS_14856_15227")_
x_("SJC_SEA_13949_14086",_"SEA_ORD_15012_15365")_
x_("SJC_SEA_13949_14086",_"SEA_MSY_14351_14725")_
x_("SJC_SEA_13949_14086",_"SEA_FAI_14896_15115")_
x_("SJC_SEA_13949_14086",_"SEA_BZN_15162_15306")_
x_("GEG_SEA_14008_14081",_"SEA_TUS_15472_15686")_
x_("GEG_SEA_14008_14081",_"SEA_SNA_15482_15629")_
x_("GEG_SEA_14008_14081",_"SEA_MSP_14135_14466")_
x_("GEG_SEA_14008_14081",_"SEA_JNU_14137_14272")_
x_("GEG_SEA_14008_14081",_"SEA_MSY_15060_15437")_
x_("GEG_SEA_14008_14081",_"SEA_AUS_14856_15227")_
x_("GEG_SEA_14008_14081",_"SEA_ORD_15012_15365")_
x_("GEG_SEA_14008_14081",_"SEA_MSY_14351_14725")_
x_("GEG_SEA_14008_14081",_"SEA_FAI_14896_15115")_
x_("GEG_SEA_14008_14081",_"SEA_BZN_15162_15306")_
x_("TPA_SEA_14080_14280",_"SEA_TUS_15472_15686")_
x_("TPA_SEA_14080_14280",_"SEA_SNA_15482_15629")_
x_("TPA_SEA_14080_14280",_"SEA_MSY_15060_15437")_
x_("TPA_SEA_14080_14280",_"SEA_AUS_14856_15227")_
x_("TPA_SEA_14080_14280",_"SEA_ORD_15012_15365")_
x_("TPA_SEA_14080_14280",_"SEA_MSY_14351_14725")_
x_("TPA_SEA_14080_14280",_"SEA_FAI_14896_15115")_
x_("TPA_SEA_14080_14280",_"SEA_BZN_15162_15306")_
x_("SEA_MSP_14135_14466",_"MSP_SEA_14826_14932")_
x_("SEA_JNU_14137_14272",_"JNU_SEA_14935_15110")_
x_("SNA_SEA_14146_14321",_"SEA_TUS_15472_15686")_
x_("SNA_SEA_14146_14321",_"SEA_SNA_15482_15629")_
x_("SNA_SEA_14146_14321",_"SEA_MSY_15060_15437")_
x_("SNA_SEA_14146_14321",_"SEA_AUS_14856_15227")_
x_("SNA_SEA_14146_14321",_"SEA_ORD_15012_15365")_
x_("SNA_SEA_14146_14321",_"SEA_FAI_14896_15115")_
x_("SNA_SEA_14146_14321",_"SEA_BZN_15162_15306")_
x_("SEA_MSY_14351_14725",_"MSY_SEA_14807_15011")_
x_("SEA_MSY_14351_14725",_"MSY_SEA_15510_15716")_
x_("PDX_SEA_14715_14768",_"SEA_TUS_15472_15686")_
x_("PDX_SEA_14715_14768",_"SEA_SNA_15482_15629")_
x_("PDX_SEA_14715_14768",_"SEA_MSY_15060_15437")_
x_("PDX_SEA_14715_14768",_"SEA_AUS_14856_15227")_
x_("PDX_SEA_14715_14768",_"SEA_ORD_15012_15365")_
x_("PDX_SEA_14715_14768",_"SEA_FAI_14896_15115")_
x_("PDX_SEA_14715_14768",_"SEA_BZN_15162_15306")_
x_("MSY_SEA_14807_15011",_"SEA_TUS_15472_15686")_
x_("MSY_SEA_14807_15011",_"SEA_PSP_16272_16438")_
x_("MSY_SEA_14807_15011",_"SEA_SNA_16306_16484")_
x_("MSY_SEA_14807_15011",_"SEA_SNA_15482_15629")_
x_("MSY_SEA_14807_15011",_"SEA_MSY_15060_15437")_
x_("MSY_SEA_14807_15011",_"SEA_BZN_15162_15306")_
x_("MSP_SEA_14826_14932",_"SEA_TUS_15472_15686")_
x_("MSP_SEA_14826_14932",_"SEA_PSP_16272_16438")_
x_("MSP_SEA_14826_14932",_"SEA_SNA_16306_16484")_
x_("MSP_SEA_14826_14932",_"SEA_SNA_15482_15629")_
x_("MSP_SEA_14826_14932",_"SEA_MSY_15060_15437")_
x_("MSP_SEA_14826_14932",_"SEA_ORD_15012_15365")_
x_("MSP_SEA_14826_14932",_"SEA_BZN_15162_15306")_
x_("SEA_AUS_14856_15227",_"AUS_SAN_15307_15389")_
x_("SEA_FAI_14896_15115",_"FAI_SEA_15162_15418")_
x_("JNU_SEA_14935_15110",_"SEA_TUS_15472_15686")_
x_("JNU_SEA_14935_15110",_"SEA_PSP_16272_16438")_
x_("JNU_SEA_14935_15110",_"SEA_SNA_16306_16484")_
x_("JNU_SEA_14935_15110",_"SEA_SNA_15482_15629")_
x_("JNU_SEA_14935_15110",_"SEA_BZN_15162_15306")_
x_("SEA_ORD_15012_15365",_"ORD_SEA_15462_15662")_
x_("SEA_MSY_15060_15437",_"MSY_SEA_15510_15716")_
x_("SEA_BZN_15162_15306",_"BZN_SEA_15356_15417")_
x_("FAI_SEA_15162_15418",_"SEA_GEG_16768_16829")_
x_("FAI_SEA_15162_15418",_"SEA_BOI_16599_16734")_
x_("FAI_SEA_15162_15418",_"SEA_TUS_15472_15686")_
x_("FAI_SEA_15162_15418",_"SEA_PSP_16272_16438")_
x_("FAI_SEA_15162_15418",_"SEA_SNA_16306_16484")_
x_("FAI_SEA_15162_15418",_"SEA_SNA_15482_15629")_
x_("FAI_SEA_15162_15418",_"SEA_ABQ_16745_16951")_
x_("FAI_SEA_15162_15418",_"SEA_BZN_16600_16757")_
x_("AUS_SAN_15307_15389",_"SAN_PDX_15444_15615")_
x_("BZN_SEA_15356_15417",_"SEA_GEG_16768_16829")_
x_("BZN_SEA_15356_15417",_"SEA_BOI_16599_16734")_
x_("BZN_SEA_15356_15417",_"SEA_TUS_15472_15686")_
x_("BZN_SEA_15356_15417",_"SEA_PSP_16272_16438")_
x_("BZN_SEA_15356_15417",_"SEA_SNA_16306_16484")_
x_("BZN_SEA_15356_15417",_"SEA_SNA_15482_15629")_
x_("BZN_SEA_15356_15417",_"SEA_ABQ_16745_16951")_
x_("BZN_SEA_15356_15417",_"SEA_BZN_16600_16757")_
x_("SAN_PDX_15444_15615",_"PDX_ANC_15677_15865")_
x_("SAN_PDX_15444_15615",_"PDX_AUS_16552_16890")_
x_("ORD_SEA_15462_15662",_"SEA_GEG_16768_16829")_
x_("ORD_SEA_15462_15662",_"SEA_DEN_17042_17244")_
x_("ORD_SEA_15462_15662",_"SEA_BOI_16599_16734")_
x_("ORD_SEA_15462_15662",_"SEA_PSP_16272_16438")_
x_("ORD_SEA_15462_15662",_"SEA_SNA_16306_16484")_
x_("ORD_SEA_15462_15662",_"SEA_SNA_16942_17083")_
x_("ORD_SEA_15462_15662",_"SEA_ABQ_16745_16951")_
x_("ORD_SEA_15462_15662",_"SEA_ATL_16907_17347")_
x_("ORD_SEA_15462_15662",_"SEA_BZN_16600_16757")_
x_("SEA_TUS_15472_15686",_"TUS_SEA_16376_16543")_
x_("SEA_SNA_15482_15629",_"SNA_SEA_16531_16707")_
x_("SEA_SNA_15482_15629",_"SNA_SEA_16357_16540")_
x_("MSY_SEA_15510_15716",_"SEA_GEG_16768_16829")_
x_("MSY_SEA_15510_15716",_"SEA_DEN_17042_17244")_
x_("MSY_SEA_15510_15716",_"SEA_BOI_16599_16734")_
x_("MSY_SEA_15510_15716",_"SEA_PSP_16272_16438")_
x_("MSY_SEA_15510_15716",_"SEA_SNA_16306_16484")_
x_("MSY_SEA_15510_15716",_"SEA_SNA_16942_17083")_
x_("MSY_SEA_15510_15716",_"SEA_ABQ_16745_16951")_
x_("MSY_SEA_15510_15716",_"SEA_ATL_16907_17347")_
x_("MSY_SEA_15510_15716",_"SEA_BZN_16600_16757")_
x_("PDX_ANC_15677_15865",_"ANC_LAX_15928_16264")_
x_("ANC_LAX_15928_16264",_"LAX_PDX_16332_16496")_
x_("SEA_PSP_16272_16438",_"PSP_SEA_16489_16677")_
x_("SEA_SNA_16306_16484",_"SNA_SEA_16531_16707")_
x_("SEA_SNA_16306_16484",_"SNA_SEA_17817_17993")_
x_("LAX_PDX_16332_16496",_"PDX_AUS_16552_16890")_
x_("SNA_SEA_16357_16540",_"SEA_GEG_16768_16829")_
x_("SNA_SEA_16357_16540",_"SEA_PSP_17701_17847")_
x_("SNA_SEA_16357_16540",_"SEA_DEN_17042_17244")_
x_("SNA_SEA_16357_16540",_"SEA_BOI_16599_16734")_
x_("SNA_SEA_16357_16540",_"SEA_TPA_17215_17682")_
x_("SNA_SEA_16357_16540",_"SEA_BOI_17952_18088")_
x_("SNA_SEA_16357_16540",_"SEA_SNA_16942_17083")_
x_("SNA_SEA_16357_16540",_"SEA_ABQ_16745_16951")_
x_("SNA_SEA_16357_16540",_"SEA_ATL_16907_17347")_
x_("SNA_SEA_16357_16540",_"SEA_BZN_16600_16757")_
x_("TUS_SEA_16376_16543",_"SEA_GEG_16768_16829")_
x_("TUS_SEA_16376_16543",_"SEA_PSP_17701_17847")_
x_("TUS_SEA_16376_16543",_"SEA_DEN_17042_17244")_
x_("TUS_SEA_16376_16543",_"SEA_BOI_16599_16734")_
x_("TUS_SEA_16376_16543",_"SEA_TPA_17215_17682")_
x_("TUS_SEA_16376_16543",_"SEA_BOI_17952_18088")_
x_("TUS_SEA_16376_16543",_"SEA_SNA_16942_17083")_
x_("TUS_SEA_16376_16543",_"SEA_ABQ_16745_16951")_
x_("TUS_SEA_16376_16543",_"SEA_ATL_16907_17347")_
x_("TUS_SEA_16376_16543",_"SEA_BZN_16600_16757")_
x_("PSP_SEA_16489_16677",_"SEA_BNA_18036_18399")_
x_("PSP_SEA_16489_16677",_"SEA_GEG_16768_16829")_
x_("PSP_SEA_16489_16677",_"SEA_PSP_17701_17847")_
x_("PSP_SEA_16489_16677",_"SEA_DEN_17042_17244")_
x_("PSP_SEA_16489_16677",_"SEA_TPA_17215_17682")_
x_("PSP_SEA_16489_16677",_"SEA_BOI_17952_18088")_
x_("PSP_SEA_16489_16677",_"SEA_SNA_16942_17083")_
x_("PSP_SEA_16489_16677",_"SEA_ABQ_16745_16951")_
x_("PSP_SEA_16489_16677",_"SEA_PHX_18088_18307")_
x_("PSP_SEA_16489_16677",_"SEA_ATL_16907_17347")_
x_("PSP_SEA_16489_16677",_"SEA_BOS_18088_18571")_
x_("SNA_SEA_16531_16707",_"SEA_BNA_18036_18399")_
x_("SNA_SEA_16531_16707",_"SEA_GEG_16768_16829")_
x_("SNA_SEA_16531_16707",_"SEA_PSP_17701_17847")_
x_("SNA_SEA_16531_16707",_"SEA_DEN_17042_17244")_
x_("SNA_SEA_16531_16707",_"SEA_TPA_17215_17682")_
x_("SNA_SEA_16531_16707",_"SEA_BOI_17952_18088")_
x_("SNA_SEA_16531_16707",_"SEA_SNA_16942_17083")_
x_("SNA_SEA_16531_16707",_"SEA_TUS_18139_18362")_
x_("SNA_SEA_16531_16707",_"SEA_ABQ_16745_16951")_
x_("SNA_SEA_16531_16707",_"SEA_PHX_18088_18307")_
x_("SNA_SEA_16531_16707",_"SEA_ATL_16907_17347")_
x_("SNA_SEA_16531_16707",_"SEA_BOS_18088_18571")_
x_("PDX_AUS_16552_16890",_"AUS_SEA_16960_17132")_
x_("SEA_BOI_16599_16734",_"BOI_SEA_16792_16828")_
x_("SEA_BOI_16599_16734",_"BOI_SEA_18158_18240")_
x_("SEA_BZN_16600_16757",_"BZN_SEA_16802_16891")_
x_("SEA_ABQ_16745_16951",_"ABQ_SEA_17007_17164")_
x_("SEA_GEG_16768_16829",_"GEG_SEA_16891_16961")_
x_("BOI_SEA_16792_16828",_"SEA_BNA_18036_18399")_
x_("BOI_SEA_16792_16828",_"SEA_PSP_17701_17847")_
x_("BOI_SEA_16792_16828",_"SEA_DEN_17042_17244")_
x_("BOI_SEA_16792_16828",_"SEA_TPA_17215_17682")_
x_("BOI_SEA_16792_16828",_"SEA_BOI_17952_18088")_
x_("BOI_SEA_16792_16828",_"SEA_SNA_16942_17083")_
x_("BOI_SEA_16792_16828",_"SEA_TUS_18139_18362")_
x_("BOI_SEA_16792_16828",_"SEA_PHX_18088_18307")_
x_("BOI_SEA_16792_16828",_"SEA_ATL_16907_17347")_
x_("BOI_SEA_16792_16828",_"SEA_BOS_18088_18571")_
x_("BZN_SEA_16802_16891",_"SEA_BNA_18036_18399")_
x_("BZN_SEA_16802_16891",_"SEA_PSP_17701_17847")_
x_("BZN_SEA_16802_16891",_"SEA_DEN_17042_17244")_
x_("BZN_SEA_16802_16891",_"SEA_TPA_17215_17682")_
x_("BZN_SEA_16802_16891",_"SEA_BOI_17952_18088")_
x_("BZN_SEA_16802_16891",_"SEA_SNA_16942_17083")_
x_("BZN_SEA_16802_16891",_"SEA_TUS_18139_18362")_
x_("BZN_SEA_16802_16891",_"SEA_PHX_18088_18307")_
x_("BZN_SEA_16802_16891",_"SEA_BOS_18088_18571")_
x_("GEG_SEA_16891_16961",_"SEA_BNA_18036_18399")_
x_("GEG_SEA_16891_16961",_"SEA_PSP_17701_17847")_
x_("GEG_SEA_16891_16961",_"SEA_DEN_17042_17244")_
x_("GEG_SEA_16891_16961",_"SEA_TPA_17215_17682")_
x_("GEG_SEA_16891_16961",_"SEA_BOI_17952_18088")_
x_("GEG_SEA_16891_16961",_"SEA_TUS_18139_18362")_
x_("GEG_SEA_16891_16961",_"SEA_PHX_18088_18307")_
x_("GEG_SEA_16891_16961",_"SEA_BOS_18088_18571")_
x_("SEA_ATL_16907_17347",_"ATL_SEA_17695_17854")_
x_("SEA_SNA_16942_17083",_"SNA_SEA_17817_17993")_
x_("AUS_SEA_16960_17132",_"SEA_BNA_18036_18399")_
x_("AUS_SEA_16960_17132",_"SEA_PSP_17701_17847")_
x_("AUS_SEA_16960_17132",_"SEA_TPA_17215_17682")_
x_("AUS_SEA_16960_17132",_"SEA_BOI_17952_18088")_
x_("AUS_SEA_16960_17132",_"SEA_TUS_18139_18362")_
x_("AUS_SEA_16960_17132",_"SEA_PHX_18088_18307")_
x_("AUS_SEA_16960_17132",_"SEA_BOS_18088_18571")_
x_("ABQ_SEA_17007_17164",_"SEA_BNA_18036_18399")_
x_("ABQ_SEA_17007_17164",_"SEA_PSP_17701_17847")_
x_("ABQ_SEA_17007_17164",_"SEA_TPA_17215_17682")_
x_("ABQ_SEA_17007_17164",_"SEA_BOI_17952_18088")_
x_("ABQ_SEA_17007_17164",_"SEA_TUS_18139_18362")_
x_("ABQ_SEA_17007_17164",_"SEA_PHX_18088_18307")_
x_("ABQ_SEA_17007_17164",_"SEA_BOS_18088_18571")_
x_("SEA_DEN_17042_17244",_"DEN_SEA_17781_17944")_
x_("SEA_TPA_17215_17682",_"TPA_SEA_17773_17981")_
x_("ATL_SEA_17695_17854",_"SEA_BNA_18036_18399")_
x_("ATL_SEA_17695_17854",_"SEA_SAN_19141_19296")_
x_("ATL_SEA_17695_17854",_"SEA_BOI_17952_18088")_
x_("ATL_SEA_17695_17854",_"SEA_TUS_18139_18362")_
x_("ATL_SEA_17695_17854",_"SEA_SNA_19091_19255")_
x_("ATL_SEA_17695_17854",_"SEA_PHX_18088_18307")_
x_("ATL_SEA_17695_17854",_"SEA_BOS_18088_18571")_
x_("SEA_PSP_17701_17847",_"PSP_SEA_17919_18082")_
x_("TPA_SEA_17773_17981",_"SEA_BNA_18036_18399")_
x_("TPA_SEA_17773_17981",_"SEA_SAN_19141_19296")_
x_("TPA_SEA_17773_17981",_"SEA_TUS_18139_18362")_
x_("TPA_SEA_17773_17981",_"SEA_SNA_19091_19255")_
x_("TPA_SEA_17773_17981",_"SEA_DAL_19410_19742")_
x_("TPA_SEA_17773_17981",_"SEA_PHX_18088_18307")_
x_("TPA_SEA_17773_17981",_"SEA_TUS_19409_19642")_
x_("TPA_SEA_17773_17981",_"SEA_BOS_18088_18571")_
x_("DEN_SEA_17781_17944",_"SEA_BNA_18036_18399")_
x_("DEN_SEA_17781_17944",_"SEA_SAN_19141_19296")_
x_("DEN_SEA_17781_17944",_"SEA_TUS_18139_18362")_
x_("DEN_SEA_17781_17944",_"SEA_SNA_19091_19255")_
x_("DEN_SEA_17781_17944",_"SEA_PHX_18088_18307")_
x_("DEN_SEA_17781_17944",_"SEA_BOS_18088_18571")_
x_("SNA_SEA_17817_17993",_"SEA_BNA_18036_18399")_
x_("SNA_SEA_17817_17993",_"SEA_SAN_19141_19296")_
x_("SNA_SEA_17817_17993",_"SEA_TUS_18139_18362")_
x_("SNA_SEA_17817_17993",_"SEA_SNA_19091_19255")_
x_("SNA_SEA_17817_17993",_"SEA_DAL_19410_19742")_
x_("SNA_SEA_17817_17993",_"SEA_PHX_18088_18307")_
x_("SNA_SEA_17817_17993",_"SEA_TUS_19409_19642")_
x_("SNA_SEA_17817_17993",_"SEA_BOS_18088_18571")_
x_("PSP_SEA_17919_18082",_"SEA_SAN_19141_19296")_
x_("PSP_SEA_17919_18082",_"SEA_TUS_18139_18362")_
x_("PSP_SEA_17919_18082",_"SEA_SNA_19091_19255")_
x_("PSP_SEA_17919_18082",_"SEA_DAL_19410_19742")_
x_("PSP_SEA_17919_18082",_"SEA_TUS_19409_19642")_
x_("SEA_BOI_17952_18088",_"BOI_SEA_18158_18240")_
x_("SEA_BNA_18036_18399",_"BNA_SEA_19135_19352")_
x_("SEA_BOS_18088_18571",_"BOS_SEA_18621_18803")_
x_("SEA_PHX_18088_18307",_"PHX_PDX_18386_18502")_
x_("SEA_TUS_18139_18362",_"TUS_SEA_19702_19837")_
x_("SEA_TUS_18139_18362",_"TUS_SEA_19192_19345")_
x_("BOI_SEA_18158_18240",_"SEA_SAN_19141_19296")_
x_("BOI_SEA_18158_18240",_"SEA_BUR_19612_19742")_
x_("BOI_SEA_18158_18240",_"SEA_SNA_19091_19255")_
x_("BOI_SEA_18158_18240",_"SEA_DAL_19410_19742")_
x_("BOI_SEA_18158_18240",_"SEA_DEN_19533_19753")_
x_("BOI_SEA_18158_18240",_"SEA_TUS_19409_19642")_
x_("PHX_PDX_18386_18502",_"PDX_SNA_19778_19909")_
x_("PHX_PDX_18386_18502",_"PDX_BUR_19379_19517")_
x_("BOS_SEA_18621_18803",_"SEA_SAN_19141_19296")_
x_("BOS_SEA_18621_18803",_"SEA_RDM_19919_19997")_
x_("BOS_SEA_18621_18803",_"SEA_BUR_19612_19742")_
x_("BOS_SEA_18621_18803",_"SEA_SNA_19091_19255")_
x_("BOS_SEA_18621_18803",_"SEA_DAL_19410_19742")_
x_("BOS_SEA_18621_18803",_"SEA_DEN_19533_19753")_
x_("BOS_SEA_18621_18803",_"SEA_ANC_19993_20169")_
x_("BOS_SEA_18621_18803",_"SEA_TUS_19409_19642")_
x_("SEA_SNA_19091_19255",_"SNA_PDX_19948_20103")_
x_("SEA_SNA_19091_19255",_"SNA_SEA_19300_19472")_
x_("BNA_SEA_19135_19352",_"SEA_RDM_19919_19997")_
x_("BNA_SEA_19135_19352",_"SEA_BUR_19612_19742")_
x_("BNA_SEA_19135_19352",_"SEA_DAL_19410_19742")_
x_("BNA_SEA_19135_19352",_"SEA_DEN_19533_19753")_
x_("BNA_SEA_19135_19352",_"SEA_ANC_19993_20169")_
x_("BNA_SEA_19135_19352",_"SEA_TUS_19409_19642")_
x_("SEA_SAN_19141_19296",_"SAN_SEA_19361_19548")_
x_("TUS_SEA_19192_19345",_"SEA_RDM_19919_19997")_
x_("TUS_SEA_19192_19345",_"SEA_BUR_19612_19742")_
x_("TUS_SEA_19192_19345",_"SEA_DAL_19410_19742")_
x_("TUS_SEA_19192_19345",_"SEA_DEN_19533_19753")_
x_("TUS_SEA_19192_19345",_"SEA_ANC_19993_20169")_
x_("TUS_SEA_19192_19345",_"SEA_TUS_19409_19642")_
x_("SNA_SEA_19300_19472",_"SEA_RDM_19919_19997")_
x_("SNA_SEA_19300_19472",_"SEA_BUR_19612_19742")_
x_("SNA_SEA_19300_19472",_"SEA_DEN_19533_19753")_
x_("SNA_SEA_19300_19472",_"SEA_ANC_19993_20169")_
x_("SAN_SEA_19361_19548",_"SEA_RDM_19919_19997")_
x_("SAN_SEA_19361_19548",_"SEA_BUR_19612_19742")_
x_("SAN_SEA_19361_19548",_"SEA_ANC_19993_20169")_
x_("PDX_BUR_19379_19517",_"BUR_PDX_19570_19722")_
x_("PDX_BUR_19379_19517",_"BUR_SEA_19808_19983")_
x_("SEA_TUS_19409_19642",_"TUS_SEA_19702_19837")_
x_("SEA_DAL_19410_19742",_"DAL_SEA_19816_19973")_
x_("SEA_DEN_19533_19753",_"DEN_SEA_19812_19934")_
x_("BUR_PDX_19570_19722",_"PDX_SNA_19778_19909")_
x_("SEA_BUR_19612_19742",_"BUR_SEA_19808_19983")_
x_("TUS_SEA_19702_19837",_"SEA_RDM_19919_19997")_
x_("TUS_SEA_19702_19837",_"SEA_ANC_19993_20169")_
x_("PDX_SNA_19778_19909",_"SNA_PDX_19948_20103")_
x_("DEN_SEA_19812_19934",_"SEA_ANC_19993_20169")_
x_("BOS_SEA_18621_18803",_"t")_
x_("SEA_SNA_19091_19255",_"t")_
x_("BNA_SEA_19135_19352",_"t")_
x_("SEA_SAN_19141_19296",_"t")_
x_("TUS_SEA_19192_19345",_"t")_
x_("SNA_SEA_19300_19472",_"t")_
x_("SAN_SEA_19361_19548",_"t")_
x_("PDX_BUR_19379_19517",_"t")_
x_("SEA_TUS_19409_19642",_"t")_
x_("SEA_DAL_19410_19742",_"t")_
x_("SEA_DEN_19533_19753",_"t")_
x_("BUR_PDX_19570_19722",_"t")_
x_("SEA_BUR_19612_19742",_"t")_
x_("TUS_SEA_19702_19837",_"t")_
x_("PDX_SNA_19778_19909",_"t")_
x_("BUR_SEA_19808_19983",_"t")_
x_("DEN_SEA_19812_19934",_"t")_
x_("DAL_SEA_19816_19973",_"t")_
x_("SEA_RDM_19919_19997",_"t")_
x_("SNA_PDX_19948_20103",_"t")_
x_("SEA_ANC_19993_20169",_"t")_
y_SEA_GEG_16768_16829,N435AS_
y_SEA_TPA_13536_14022,N435AS_
y_SEA_PSP_16272_16438,N435AS_
y_SEA_PSP_17701_17847,N435AS_
y_SEA_SMF_13599_13694,N435AS_
y_SEA_RDM_12197_12256,N435AS_
y_SEA_SNA_15482_15629,N435AS_
y_SEA_BOS_12457_12959,N435AS_
y_SEA_PHX_12739_12962,N435AS_
y_SEA_RDM_19919_19997,N435AS_
y_SEA_BUR_19612_19742,N435AS_
y_SEA_SNA_19091_19255,N435AS_
y_SEA_ABQ_16745_16951,N435AS_
y_SEA_DEN_19533_19753,N435AS_
y_PDX_AUS_16552_16890,N435AS_
y_SEA_FAI_14896_15115,N435AS_
y_SEA_MSY_14351_14725,N435AS_
y_SEA_DEN_17042_17244,N435AS_
y_SEA_LAS_12090_12244,N435AS_
y_SEA_SAN_19141_19296,N435AS_
y_SEA_BZN_15162_15306,N435AS_
y_SEA_BNA_18036_18399,N435AS_
y_SEA_AUS_14856_15227,N435AS_
y_SEA_SNA_16942_17083,N435AS_
y_PDX_BUR_19379_19517,N435AS_
y_SEA_PHX_12265_12485,N435AS_
y_SEA_PHX_18088_18307,N435AS_
y_SEA_SNA_16306_16484,N435AS_
y_SEA_LAS_12573_12699,N435AS_
y_SEA_BOS_18088_18571,N435AS_
y_SEA_JNU_14137_14272,N435AS_
y_SEA_BOI_16599_16734,N435AS_
y_SEA_GEG_13644_13713,N435AS_
y_SEA_FAI_11156_11321,N435AS_
y_SEA_BZN_16600_16757,N435AS_
y_SEA_MSY_15060_15437,N435AS_
y_SEA_ANC_19993_20169,N435AS_
y_SEA_MSP_14135_14466,N435AS_
y_SEA_AUS_11448_11783,N435AS_
y_SEA_ORD_15012_15365,N435AS_
y_SEA_DAL_19410_19742,N435AS_
y_SEA_BOI_17952_18088,N435AS_
y_SNA_SEA_17817_17993,N435AS_
y_SEA_TUS_15472_15686,N435AS_
y_SEA_TPA_17215_17682,N435AS_
y_SEA_ANC_11214_11362,N435AS_
y_TUS_SEA_19702_19837,N435AS_
y_SEA_GEG_13889_13953,N435AS_
y_SEA_SJC_13777_13892,N435AS_
y_SEA_SNA_13947_14092,N435AS_
y_SEA_TUS_18139_18362,N435AS_
y_SEA_DEN_11299_11510,N435AS_
y_PDX_SEA_14715_14768,N435AS_
y_TUS_SEA_16376_16543,N435AS_
y_SNA_PDX_19948_20103,N435AS_
y_PDX_SNA_19778_19909,N435AS_
y_SEA_TUS_19409_19642,N435AS_
y_PDX_LAS_11263_11390,N435AS_
y_SEA_ATL_16907_17347,N435AS_
y_SEA_TUS_12542_12765,N435AS_
y_SNA_SEA_16357_16540,N435AS_
y_LAS_LAX_12746_12823,N435AS_
y_SEA_MSP_12603_12910,N435AS_
y_SNA_SEA_16531_16707,N435AS_
y_TUS_SEA_19192_19345,N435AS_
y_LAS_SEA_12302_12476,N435AS_
y_TUS_SEA_13560_13715,N435AS_
y_LAS_SEA_12242_12410,N435AS_
y_SEA_GEG_16768_16829,N548AS_
y_SEA_TPA_13536_14022,N548AS_
y_SEA_PSP_16272_16438,N548AS_
y_SEA_PSP_17701_17847,N548AS_
y_SEA_SMF_13599_13694,N548AS_
y_SEA_RDM_12197_12256,N548AS_
y_SEA_SNA_15482_15629,N548AS_
y_SEA_BOS_12457_12959,N548AS_
y_SEA_PHX_12739_12962,N548AS_
y_SEA_RDM_19919_19997,N548AS_
y_SEA_BUR_19612_19742,N548AS_
y_SEA_SNA_19091_19255,N548AS_
y_SEA_ABQ_16745_16951,N548AS_
y_SEA_DEN_19533_19753,N548AS_
y_PDX_AUS_16552_16890,N548AS_
y_SEA_FAI_14896_15115,N548AS_
y_SEA_MSY_14351_14725,N548AS_
y_SEA_DEN_17042_17244,N548AS_
y_SEA_LAS_12090_12244,N548AS_
y_SEA_SAN_19141_19296,N548AS_
y_SEA_BZN_15162_15306,N548AS_
y_SEA_BNA_18036_18399,N548AS_
y_SEA_AUS_14856_15227,N548AS_
y_SEA_SNA_16942_17083,N548AS_
y_PDX_BUR_19379_19517,N548AS_
y_SEA_PHX_12265_12485,N548AS_
y_SEA_PHX_18088_18307,N548AS_
y_SEA_SNA_16306_16484,N548AS_
y_SEA_LAS_12573_12699,N548AS_
y_SEA_BOS_18088_18571,N548AS_
y_SEA_JNU_14137_14272,N548AS_
y_SEA_BOI_16599_16734,N548AS_
y_SEA_GEG_13644_13713,N548AS_
y_SEA_FAI_11156_11321,N548AS_
y_SEA_BZN_16600_16757,N548AS_
y_SEA_MSY_15060_15437,N548AS_
y_SEA_ANC_19993_20169,N548AS_
y_SEA_MSP_14135_14466,N548AS_
y_SEA_AUS_11448_11783,N548AS_
y_SEA_ORD_15012_15365,N548AS_
y_SEA_DAL_19410_19742,N548AS_
y_SEA_BOI_17952_18088,N548AS_
y_SNA_SEA_17817_17993,N548AS_
y_SEA_TUS_15472_15686,N548AS_
y_SEA_TPA_17215_17682,N548AS_
y_SEA_ANC_11214_11362,N548AS_
y_TUS_SEA_19702_19837,N548AS_
y_SEA_GEG_13889_13953,N548AS_
y_SEA_SJC_13777_13892,N548AS_
y_SEA_SNA_13947_14092,N548AS_
y_SEA_TUS_18139_18362,N548AS_
y_SEA_DEN_11299_11510,N548AS_
y_PDX_SEA_14715_14768,N548AS_
y_TUS_SEA_16376_16543,N548AS_
y_SNA_PDX_19948_20103,N548AS_
y_PDX_SNA_19778_19909,N548AS_
y_SEA_TUS_19409_19642,N548AS_
y_PDX_LAS_11263_11390,N548AS_
y_SEA_ATL_16907_17347,N548AS_
y_SEA_TUS_12542_12765,N548AS_
y_SNA_SEA_16357_16540,N548AS_
y_LAS_LAX_12746_12823,N548AS_
y_SEA_MSP_12603_12910,N548AS_
y_SNA_SEA_16531_16707,N548AS_
y_TUS_SEA_19192_19345,N548AS_
y_LAS_SEA_12302_12476,N548AS_
y_TUS_SEA_13560_13715,N548AS_
y_LAS_SEA_12242_12410,N548AS_
y_SEA_GEG_16768_16829,N303AS_
y_SEA_TPA_13536_14022,N303AS_
y_SEA_PSP_16272_16438,N303AS_
y_SEA_PSP_17701_17847,N303AS_
y_SEA_SMF_13599_13694,N303AS_
y_SEA_RDM_12197_12256,N303AS_
y_SEA_SNA_15482_15629,N303AS_
y_SEA_BOS_12457_12959,N303AS_
y_SEA_PHX_12739_12962,N303AS_
y_SEA_RDM_19919_19997,N303AS_
y_SEA_BUR_19612_19742,N303AS_
y_SEA_SNA_19091_19255,N303AS_
y_SEA_ABQ_16745_16951,N303AS_
y_SEA_DEN_19533_19753,N303AS_
y_PDX_AUS_16552_16890,N303AS_
y_SEA_FAI_14896_15115,N303AS_
y_SEA_MSY_14351_14725,N303AS_
y_SEA_DEN_17042_17244,N303AS_
y_SEA_LAS_12090_12244,N303AS_
y_SEA_SAN_19141_19296,N303AS_
y_SEA_BZN_15162_15306,N303AS_
y_SEA_BNA_18036_18399,N303AS_
y_SEA_AUS_14856_15227,N303AS_
y_SEA_SNA_16942_17083,N303AS_
y_PDX_BUR_19379_19517,N303AS_
y_SEA_PHX_12265_12485,N303AS_
y_SEA_PHX_18088_18307,N303AS_
y_SEA_SNA_16306_16484,N303AS_
y_SEA_LAS_12573_12699,N303AS_
y_SEA_BOS_18088_18571,N303AS_
y_SEA_JNU_14137_14272,N303AS_
y_SEA_BOI_16599_16734,N303AS_
y_SEA_GEG_13644_13713,N303AS_
y_SEA_FAI_11156_11321,N303AS_
y_SEA_BZN_16600_16757,N303AS_
y_SEA_MSY_15060_15437,N303AS_
y_SEA_ANC_19993_20169,N303AS_
y_SEA_MSP_14135_14466,N303AS_
y_SEA_AUS_11448_11783,N303AS_
y_SEA_ORD_15012_15365,N303AS_
y_SEA_DAL_19410_19742,N303AS_
y_SEA_BOI_17952_18088,N303AS_
y_SNA_SEA_17817_17993,N303AS_
y_SEA_TUS_15472_15686,N303AS_
y_SEA_TPA_17215_17682,N303AS_
y_SEA_ANC_11214_11362,N303AS_
y_TUS_SEA_19702_19837,N303AS_
y_SEA_GEG_13889_13953,N303AS_
y_SEA_SJC_13777_13892,N303AS_
y_SEA_SNA_13947_14092,N303AS_
y_SEA_TUS_18139_18362,N303AS_
y_SEA_DEN_11299_11510,N303AS_
y_PDX_SEA_14715_14768,N303AS_
y_TUS_SEA_16376_16543,N303AS_
y_SNA_PDX_19948_20103,N303AS_
y_PDX_SNA_19778_19909,N303AS_
y_SEA_TUS_19409_19642,N303AS_
y_PDX_LAS_11263_11390,N303AS_
y_SEA_ATL_16907_17347,N303AS_
y_SEA_TUS_12542_12765,N303AS_
y_SNA_SEA_16357_16540,N303AS_
y_LAS_LAX_12746_12823,N303AS_
y_SEA_MSP_12603_12910,N303AS_
y_SNA_SEA_16531_16707,N303AS_
y_TUS_SEA_19192_19345,N303AS_
y_LAS_SEA_12302_12476,N303AS_
y_TUS_SEA_13560_13715,N303AS_
y_LAS_SEA_12242_12410,N303AS_
y_SEA_GEG_16768_16829,N553AS_
y_SEA_TPA_13536_14022,N553AS_
y_SEA_PSP_16272_16438,N553AS_
y_SEA_PSP_17701_17847,N553AS_
y_SEA_SMF_13599_13694,N553AS_
y_SEA_RDM_12197_12256,N553AS_
y_SEA_SNA_15482_15629,N553AS_
y_SEA_BOS_12457_12959,N553AS_
y_SEA_PHX_12739_12962,N553AS_
y_SEA_RDM_19919_19997,N553AS_
y_SEA_BUR_19612_19742,N553AS_
y_SEA_SNA_19091_19255,N553AS_
y_SEA_ABQ_16745_16951,N553AS_
y_SEA_DEN_19533_19753,N553AS_
y_PDX_AUS_16552_16890,N553AS_
y_SEA_FAI_14896_15115,N553AS_
y_SEA_MSY_14351_14725,N553AS_
y_SEA_DEN_17042_17244,N553AS_
y_SEA_LAS_12090_12244,N553AS_
y_SEA_SAN_19141_19296,N553AS_
y_SEA_BZN_15162_15306,N553AS_
y_SEA_BNA_18036_18399,N553AS_
y_SEA_AUS_14856_15227,N553AS_
y_SEA_SNA_16942_17083,N553AS_
y_PDX_BUR_19379_19517,N553AS_
y_SEA_PHX_12265_12485,N553AS_
y_SEA_PHX_18088_18307,N553AS_
y_SEA_SNA_16306_16484,N553AS_
y_SEA_LAS_12573_12699,N553AS_
y_SEA_BOS_18088_18571,N553AS_
y_SEA_JNU_14137_14272,N553AS_
y_SEA_BOI_16599_16734,N553AS_
y_SEA_GEG_13644_13713,N553AS_
y_SEA_FAI_11156_11321,N553AS_
y_SEA_BZN_16600_16757,N553AS_
y_SEA_MSY_15060_15437,N553AS_
y_SEA_ANC_19993_20169,N553AS_
y_SEA_MSP_14135_14466,N553AS_
y_SEA_AUS_11448_11783,N553AS_
y_SEA_ORD_15012_15365,N553AS_
y_SEA_DAL_19410_19742,N553AS_
y_SEA_BOI_17952_18088,N553AS_
y_SNA_SEA_17817_17993,N553AS_
y_SEA_TUS_15472_15686,N553AS_
y_SEA_TPA_17215_17682,N553AS_
y_SEA_ANC_11214_11362,N553AS_
y_TUS_SEA_19702_19837,N553AS_
y_SEA_GEG_13889_13953,N553AS_
y_SEA_SJC_13777_13892,N553AS_
y_SEA_SNA_13947_14092,N553AS_
y_SEA_TUS_18139_18362,N553AS_
y_SEA_DEN_11299_11510,N553AS_
y_PDX_SEA_14715_14768,N553AS_
y_TUS_SEA_16376_16543,N553AS_
y_SNA_PDX_19948_20103,N553AS_
y_PDX_SNA_19778_19909,N553AS_
y_SEA_TUS_19409_19642,N553AS_
y_PDX_LAS_11263_11390,N553AS_
y_SEA_ATL_16907_17347,N553AS_
y_SEA_TUS_12542_12765,N553AS_
y_SNA_SEA_16357_16540,N553AS_
y_LAS_LAX_12746_12823,N553AS_
y_SEA_MSP_12603_12910,N553AS_
y_SNA_SEA_16531_16707,N553AS_
y_TUS_SEA_19192_19345,N553AS_
y_LAS_SEA_12302_12476,N553AS_
y_TUS_SEA_13560_13715,N553AS_
y_LAS_SEA_12242_12410,N553AS_
y_SEA_GEG_16768_16829,N556AS_
y_SEA_TPA_13536_14022,N556AS_
y_SEA_PSP_16272_16438,N556AS_
y_SEA_PSP_17701_17847,N556AS_
y_SEA_SMF_13599_13694,N556AS_
y_SEA_RDM_12197_12256,N556AS_
y_SEA_SNA_15482_15629,N556AS_
y_SEA_BOS_12457_12959,N556AS_
y_SEA_PHX_12739_12962,N556AS_
y_SEA_RDM_19919_19997,N556AS_
y_SEA_BUR_19612_19742,N556AS_
y_SEA_SNA_19091_19255,N556AS_
y_SEA_ABQ_16745_16951,N556AS_
y_SEA_DEN_19533_19753,N556AS_
y_PDX_AUS_16552_16890,N556AS_
y_SEA_FAI_14896_15115,N556AS_
y_SEA_MSY_14351_14725,N556AS_
y_SEA_DEN_17042_17244,N556AS_
y_SEA_LAS_12090_12244,N556AS_
y_SEA_SAN_19141_19296,N556AS_
y_SEA_BZN_15162_15306,N556AS_
y_SEA_BNA_18036_18399,N556AS_
y_SEA_AUS_14856_15227,N556AS_
y_SEA_SNA_16942_17083,N556AS_
y_PDX_BUR_19379_19517,N556AS_
y_SEA_PHX_12265_12485,N556AS_
y_SEA_PHX_18088_18307,N556AS_
y_SEA_SNA_16306_16484,N556AS_
y_SEA_LAS_12573_12699,N556AS_
y_SEA_BOS_18088_18571,N556AS_
y_SEA_JNU_14137_14272,N556AS_
y_SEA_BOI_16599_16734,N556AS_
y_SEA_GEG_13644_13713,N556AS_
y_SEA_FAI_11156_11321,N556AS_
y_SEA_BZN_16600_16757,N556AS_
y_SEA_MSY_15060_15437,N556AS_
y_SEA_ANC_19993_20169,N556AS_
y_SEA_MSP_14135_14466,N556AS_
y_SEA_AUS_11448_11783,N556AS_
y_SEA_ORD_15012_15365,N556AS_
y_SEA_DAL_19410_19742,N556AS_
y_SEA_BOI_17952_18088,N556AS_
y_SNA_SEA_17817_17993,N556AS_
y_SEA_TUS_15472_15686,N556AS_
y_SEA_TPA_17215_17682,N556AS_
y_SEA_ANC_11214_11362,N556AS_
y_TUS_SEA_19702_19837,N556AS_
y_SEA_GEG_13889_13953,N556AS_
y_SEA_SJC_13777_13892,N556AS_
y_SEA_SNA_13947_14092,N556AS_
y_SEA_TUS_18139_18362,N556AS_
y_SEA_DEN_11299_11510,N556AS_
y_PDX_SEA_14715_14768,N556AS_
y_TUS_SEA_16376_16543,N556AS_
y_SNA_PDX_19948_20103,N556AS_
y_PDX_SNA_19778_19909,N556AS_
y_SEA_TUS_19409_19642,N556AS_
y_PDX_LAS_11263_11390,N556AS_
y_SEA_ATL_16907_17347,N556AS_
y_SEA_TUS_12542_12765,N556AS_
y_SNA_SEA_16357_16540,N556AS_
y_LAS_LAX_12746_12823,N556AS_
y_SEA_MSP_12603_12910,N556AS_
y_SNA_SEA_16531_16707,N556AS_
y_TUS_SEA_19192_19345,N556AS_
y_LAS_SEA_12302_12476,N556AS_
y_TUS_SEA_13560_13715,N556AS_
y_LAS_SEA_12242_12410,N556AS_
End
